# -*- coding: utf-8 -*-
# HORTON: Helpful Open-source Research TOol for N-fermion systems.
# Copyright (C) 2011-2019 The HORTON Development Team
#
# This file is part of HORTON.
#
# HORTON is free software; you can redistribute it and/or
# modify it under the terms of the GNU General Public License
# as published by the Free Software Foundation; either version 3
# of the License, or (at your option) any later version.
#
# HORTON is distributed in the hope that it will be useful,
# but WITHOUT ANY WARRANTY; without even the implied warranty of
# MERCHANTABILITY or FITNESS FOR A PARTICULAR PURPOSE.  See the
# GNU General Public License for more details.
#
# You should have received a copy of the GNU General Public License
# along with this program; if not, see <http://www.gnu.org/licenses/>
#
# --


## These grids were created by Toon Verstraelen in July 2013 in a second effort
## to generate tuned grids based on a series of diatomic benchmarks computed
## with the QZVP basis of Ahlrichs and coworkers. They are constructed to give
## on average 6 digits of precision for a variety of molecular integrals, using
## the Becke scheme with k=3.


# Cost threshold for grid selection:   -6.00000

# Grid for Z=1 and Zeff=1
# Cost:             -6.53045
# Number of points: 3154
# Number of shells: 41

1 1
   PowerRTransform 1.1774580743206259e-07 20.140888089596444 41
   6 6 6 6 6 6 6 6 6 6 6 14 14 14 14 14 26 38 38 50 50 86 110 146 194 302 302 266 194 170 170 170 110 110 110 110 110 86 50 14 6

################################################################################

# Grid for Z=2 and Zeff=2
# Cost:             -6.62021
# Number of points: 3298
# Number of shells: 41

2 2
   PowerRTransform 1.3069604267663534e-07 22.34088779103861 41
   6 6 6 6 6 6 6 6 6 6 14 14 14 14 26 38 38 50 50 86 110 170 194 194 194 194 302 194 170 170 170 170 170 110 110 110 86 50 14 6 6

################################################################################

# Grid for Z=3 and Zeff=3
# Cost:             -6.63338
# Number of points: 19718
# Number of shells: 103

3 3
   PowerRTransform 1.08340843414468e-09 20.62252634355652 103
   6 6 6 6 6 6 6 6 6 6 6 6 6 6 6 6 6 6 6 6 6 6 6 6 6 6 6 6 6 6 6 6 6 6 6 14 14 14 14 14 14 14 14 14 26 26 26 26 38 38 38 38 38 50 50 50 74 86 110 110 110 170 194 194 194 302 434 590 770 974 1202 1730 1202 974 1202 1202 1202 1202 770 590 434 302 302 302 194 194 194 170 170 170 170 110 110 110 110 86 50 50 50 38 14 14 6

################################################################################

# Grid for Z=4 and Zeff=4
# Cost:             -6.31217
# Number of points: 9038
# Number of shells: 71

4 4
   PowerRTransform 6.120858990279522e-09 17.50741119571002 71
   6 6 6 6 6 6 6 6 6 6 6 6 6 6 6 6 6 6 6 6 6 6 14 14 14 14 14 14 14 14 26 26 38 38 38 50 50 50 86 110 110 170 194 302 302 590 770 590 590 434 434 434 434 590 302 302 194 194 170 170 170 110 110 110 110 110 86 86 50 50 14

################################################################################

# Grid for Z=5 and Zeff=5
# Cost:             -6.58239
# Number of points: 8190
# Number of shells: 71

5 5
   PowerRTransform 5.819727716178185e-09 16.67358136064302 71
   6 6 6 6 6 6 6 6 6 6 6 6 6 6 6 6 6 6 6 6 14 14 14 14 14 14 14 14 14 26 26 26 38 38 38 38 50 50 50 86 86 110 110 170 170 302 302 434 590 770 770 590 434 434 302 302 194 194 170 170 110 110 110 110 110 86 86 50 50 38 14

################################################################################

# Grid for Z=6 and Zeff=6
# Cost:             -7.58166
# Number of points: 8314
# Number of shells: 71

6 6
   PowerRTransform 9.854884123569506e-09 28.164357695660463 71
   6 6 6 6 6 6 6 6 6 6 6 6 6 6 6 14 14 14 14 14 14 14 14 26 26 26 38 38 38 38 50 50 86 110 110 110 110 110 110 146 170 194 302 434 434 590 770 434 434 302 302 194 170 170 170 170 170 170 110 170 170 110 110 110 110 110 110 86 50 50 14

################################################################################

# Grid for Z=7 and Zeff=7
# Cost:             -6.95983
# Number of points: 8234
# Number of shells: 71

7 7
   PowerRTransform 6.021033970151077e-09 17.225084564638465 71
   6 6 6 6 6 6 6 6 6 6 6 6 6 6 6 6 14 14 14 14 14 14 14 14 14 26 26 26 26 38 38 38 50 50 86 110 110 110 110 110 110 110 110 170 194 302 302 434 590 590 770 590 434 302 302 194 194 170 170 170 110 110 110 110 110 86 50 50 50 50 14

################################################################################

# Grid for Z=8 and Zeff=8
# Cost:             -6.17804
# Number of points: 7746
# Number of shells: 71

8 8
   PowerRTransform 5.709167280832581e-09 16.443620230122423 71
   6 6 6 6 6 6 6 6 6 6 6 6 6 6 6 6 6 14 14 14 14 14 14 14 14 14 14 26 26 26 38 38 38 50 50 50 86 86 110 110 170 194 302 434 770 590 434 434 434 302 302 302 194 194 170 170 170 110 110 110 110 110 110 110 110 110 86 50 50 14 14

################################################################################

# Grid for Z=9 and Zeff=9
# Cost:             -6.86677
# Number of points: 9966
# Number of shells: 71

9 9
   PowerRTransform 4.6544747895259395e-09 13.30109856228902 71
   6 6 6 6 6 6 6 6 6 6 6 6 6 6 6 6 6 14 14 14 14 14 14 14 14 14 14 26 26 26 38 38 38 50 50 50 74 86 110 110 170 170 302 434 590 770 770 590 590 434 434 434 302 302 302 302 302 266 194 194 170 170 110 110 110 110 110 110 86 50 14

################################################################################

# Grid for Z=10 and Zeff=10
# Cost:             -6.50895
# Number of points: 8778
# Number of shells: 71

10 10
   PowerRTransform 6.279410208311427e-09 17.88969496518987 71
   6 6 6 6 6 6 6 6 6 6 6 6 6 6 6 6 6 14 14 14 14 14 14 14 14 14 26 26 26 38 38 38 50 50 50 86 86 110 170 170 302 434 590 590 590 590 434 434 302 302 302 302 302 302 194 194 170 170 110 110 110 110 110 110 110 110 86 50 38 14 14

################################################################################

# Grid for Z=11 and Zeff=11
# Cost:             -6.53459
# Number of points: 21890
# Number of shells: 123

11 11
   PowerRTransform 5.119267171926696e-10 24.327894978865704 123
   6 6 6 6 6 6 6 6 6 6 6 6 6 6 6 6 6 6 6 6 6 6 6 6 6 6 6 6 6 6 6 6 14 14 14 14 14 14 14 14 14 14 14 14 14 14 14 14 14 14 14 14 14 26 26 26 26 26 26 38 38 38 38 38 38 38 50 50 50 50 50 86 86 86 110 110 110 170 170 194 194 302 302 434 434 590 770 974 1454 2030 2030 1730 1454 974 770 590 590 434 434 302 302 302 302 194 194 194 170 170 170 110 110 110 86 50 50 50 50 50 50 38 38 14 14

################################################################################

# Grid for Z=12 and Zeff=12
# Cost:             -6.13695
# Number of points: 17546
# Number of shells: 103

12 12
   PowerRTransform 1.0195177100980668e-09 19.57021945170473 103
   6 6 6 6 6 6 6 6 6 6 6 6 6 6 6 6 6 6 6 6 6 6 6 6 6 6 14 14 14 14 14 14 14 14 14 14 14 14 14 14 14 14 14 14 14 26 26 26 26 26 38 38 38 38 38 50 50 50 50 86 86 110 110 110 170 194 302 302 434 434 590 770 590 770 770 770 1202 1454 1454 1202 770 590 434 434 302 302 194 194 194 170 170 170 110 110 110 110 86 86 50 50 38 14 6

################################################################################

# Grid for Z=13 and Zeff=13
# Cost:             -6.20408
# Number of points: 23338
# Number of shells: 123

13 13
   PowerRTransform 5.481360966443721e-10 26.054904410598994 123
   6 6 6 6 6 6 6 6 6 6 6 6 6 6 6 6 6 6 6 6 6 6 6 6 6 14 14 14 14 14 14 14 14 14 14 14 14 14 14 14 14 14 14 14 26 26 26 26 26 26 26 38 38 38 38 38 38 38 50 50 50 50 50 50 50 74 86 86 86 110 110 110 170 170 170 194 302 302 434 434 590 770 974 974 1202 1454 1730 2030 1454 1202 770 770 434 434 434 302 302 302 266 194 194 194 170 170 170 170 170 110 110 110 110 110 110 110 110 110 110 110 86 50 50 50 14

################################################################################

# Grid for Z=14 and Zeff=14
# Cost:             -6.23469
# Number of points: 20430
# Number of shells: 123

14 14
   PowerRTransform 5.907724387691543e-10 28.08043359997588 123
   6 6 6 6 6 6 6 6 6 6 6 6 6 6 6 6 6 6 6 6 6 6 6 6 14 14 14 14 14 14 14 14 14 14 14 14 14 14 14 14 14 14 26 26 26 26 26 26 26 38 38 38 38 38 38 38 50 50 50 50 50 50 50 50 74 86 86 86 110 110 110 170 170 194 194 302 302 434 434 590 770 974 1202 1454 1730 1454 1202 974 590 434 434 302 302 302 302 266 194 194 194 170 170 170 170 110 110 110 110 110 110 110 110 110 110 110 110 110 86 86 50 50 50 14 14

################################################################################

# Grid for Z=15 and Zeff=15
# Cost:             -6.03956
# Number of points: 15258
# Number of shells: 103

15 15
   PowerRTransform 9.089314899630951e-10 17.437790054019924 103
   6 6 6 6 6 6 6 6 6 6 6 6 6 6 6 6 6 6 6 6 6 6 6 6 6 14 14 14 14 14 14 14 14 14 14 14 14 14 14 14 14 26 26 26 26 26 26 26 38 38 38 38 38 50 50 50 50 86 86 110 110 110 170 170 194 302 302 302 434 590 770 1202 1202 974 770 770 770 770 770 434 302 302 302 194 194 194 170 170 110 110 110 110 110 110 86 86 50 50 50 38 38 14 14

################################################################################

# Grid for Z=16 and Zeff=16
# Cost:             -6.04757
# Number of points: 12162
# Number of shells: 85

16 16
   PowerRTransform 3.1813786400179616e-09 22.79566890037017 85
   6 6 6 6 6 6 6 6 6 6 6 6 6 6 6 6 6 6 6 14 14 14 14 14 14 14 14 14 14 14 14 14 26 26 26 26 26 26 38 38 38 38 50 50 50 86 86 110 110 170 194 302 302 434 770 974 1202 770 770 770 974 770 434 302 302 194 194 170 170 110 110 110 86 86 86 50 50 50 50 14 14 14 6 6 6

################################################################################

# Grid for Z=17 and Zeff=17
# Cost:             -6.37152
# Number of points: 20630
# Number of shells: 123

17 17
   PowerRTransform 4.979409096248031e-10 23.667651372501947 123
   6 6 6 6 6 6 6 6 6 6 6 6 6 6 6 6 6 6 6 6 6 6 6 14 14 14 14 14 14 14 14 14 14 14 14 14 14 14 14 14 14 14 26 26 26 26 26 26 26 26 38 38 38 38 38 38 38 50 50 50 50 50 50 74 74 74 86 86 110 110 110 146 170 170 194 194 302 302 434 434 770 974 770 974 1454 1202 1454 1454 974 770 590 590 434 434 302 302 302 302 194 194 194 170 170 170 110 110 110 110 110 110 86 86 86 86 50 50 26 38 14 14 14 14 14

################################################################################

# Grid for Z=18 and Zeff=18
# Cost:             -6.10973
# Number of points: 24038
# Number of shells: 123

18 18
   PowerRTransform 4.846005822069346e-10 23.03604283566973 123
   6 6 6 6 6 6 6 6 6 6 6 6 6 6 6 6 6 6 6 6 6 6 6 6 6 14 14 14 14 14 14 14 14 14 14 14 14 14 14 14 14 14 26 26 26 26 26 26 26 26 38 38 38 38 38 38 38 50 50 50 50 50 74 86 86 86 110 110 146 170 194 194 194 302 302 434 434 590 770 974 1454 1730 1730 1202 974 770 974 1202 1202 770 590 434 434 302 302 302 302 302 194 194 194 170 170 170 170 170 110 110 110 110 110 110 86 86 86 86 74 50 50 50 14 14 6

################################################################################

# Grid for Z=19 and Zeff=19
# Cost:             -6.45120
# Number of points: 31796
# Number of shells: 148

19 19
   PowerRTransform 1.9485740115785724e-10 23.84968248587176 148
   6 6 6 6 6 6 6 6 6 6 6 6 6 6 6 6 6 6 6 6 6 6 6 6 6 6 6 6 6 6 6 6 6 6 6 14 14 14 14 14 14 14 14 14 14 14 14 14 14 14 14 14 14 14 14 14 14 14 26 26 26 26 26 26 26 26 26 26 26 26 26 38 38 38 38 38 38 38 38 38 50 50 50 50 50 50 74 86 86 86 110 110 110 110 110 146 170 170 194 194 194 302 302 434 434 590 770 974 1202 1730 2030 2030 2030 2030 2030 1730 1202 974 974 590 590 434 434 434 302 302 302 302 302 302 302 302 194 194 170 170 170 170 110 110 86 86 50 50 50 38 14 6

################################################################################

# Grid for Z=20 and Zeff=20
# Cost:             -6.15689
# Number of points: 25126
# Number of shells: 123

20 20
   PowerRTransform 5.157548327173321e-10 24.52426949615084 123
   6 6 6 6 6 6 6 6 6 6 6 6 6 6 6 6 6 6 6 6 6 6 6 6 6 6 6 14 14 14 14 14 14 14 14 14 14 14 14 14 14 26 26 26 26 26 26 26 26 26 26 26 26 26 26 38 38 38 38 38 38 38 50 50 50 50 50 50 86 86 86 110 110 110 110 110 170 170 302 302 434 590 590 770 590 770 770 974 974 1454 1730 2030 1730 1454 1202 770 590 590 434 434 302 302 302 302 194 194 194 170 170 170 110 110 110 110 86 86 50 50 50 50 50 38 6

################################################################################

# Grid for Z=21 and Zeff=21
# Cost:             -6.23094
# Number of points: 23342
# Number of shells: 123

21 21
   PowerRTransform 4.762584180244137e-10 22.639953090744456 123
   6 6 6 6 6 6 6 6 6 6 6 6 6 6 6 6 6 6 6 6 6 6 6 6 6 6 14 14 14 14 14 14 14 14 14 14 26 26 26 26 26 26 26 26 26 26 38 38 38 38 38 38 38 38 38 38 50 74 74 74 74 86 86 86 86 86 86 86 86 86 86 110 110 110 110 110 110 110 170 170 194 194 194 302 302 434 590 590 770 1202 1730 2030 2030 1730 1202 974 590 770 434 434 302 302 302 302 194 194 194 194 170 170 110 110 110 110 110 110 86 86 86 50 50 38 14

################################################################################

# Grid for Z=22 and Zeff=22
# Cost:             -6.00036
# Number of points: 16542
# Number of shells: 103

22 22
   PowerRTransform 1.0466205033439775e-09 20.065473699310125 103
   6 6 6 6 6 6 6 6 6 6 6 6 6 6 6 6 6 6 6 6 6 6 6 14 14 14 14 14 14 14 14 26 26 26 26 26 26 26 26 38 38 38 38 38 38 38 38 74 74 74 86 110 110 110 110 110 110 110 110 110 110 110 110 110 110 110 110 170 170 194 302 302 434 590 770 974 974 1454 1202 1454 974 590 434 302 302 302 194 194 194 170 170 170 110 110 110 110 86 86 50 38 14 6 6

################################################################################

# Grid for Z=23 and Zeff=23
# Cost:             -6.25455
# Number of points: 16850
# Number of shells: 103

23 23
   PowerRTransform 1.2422169397425019e-09 23.77817466283962 103
   6 6 6 6 6 6 6 6 6 6 6 6 6 6 6 6 6 6 6 6 6 14 14 14 14 14 14 14 26 26 26 26 26 26 26 38 38 38 38 38 38 38 38 50 74 74 86 110 110 110 110 110 110 110 110 146 146 146 146 170 170 170 170 170 170 170 194 302 302 434 434 770 770 770 974 1454 1454 974 590 434 434 302 302 302 302 194 194 170 170 170 110 110 86 86 86 86 86 50 50 14 14 14 14

################################################################################

# Grid for Z=24 and Zeff=24
# Cost:             -6.15389
# Number of points: 20018
# Number of shells: 103

24 24
   PowerRTransform 9.918186100125791e-10 19.047157155969302 103
   6 6 6 6 6 6 6 6 6 6 6 6 6 6 6 6 6 6 6 6 14 14 14 14 14 14 14 14 26 26 26 26 26 26 26 38 38 38 38 38 38 38 38 50 74 74 86 110 110 146 170 170 170 170 170 170 170 170 170 170 170 170 170 194 194 170 170 194 194 302 302 434 590 590 770 1202 1454 1202 1730 1454 974 590 434 434 302 302 302 194 194 194 194 170 170 170 110 110 110 110 86 50 50 38 6

################################################################################

# Grid for Z=25 and Zeff=25
# Cost:             -6.54919
# Number of points: 34474
# Number of shells: 123

25 25
   PowerRTransform 3.8624049512306006e-10 18.36323536818247 123
   6 6 6 6 6 6 6 6 6 6 6 6 6 6 6 6 6 6 6 6 6 6 14 14 14 14 14 14 14 14 14 14 14 26 26 26 26 26 26 26 38 38 38 38 38 38 38 38 38 38 50 74 74 74 74 110 110 110 170 170 170 170 170 170 170 170 170 170 170 194 194 194 194 194 194 194 194 302 302 302 434 590 770 974 1202 1202 1202 974 1202 1730 1454 1454 1730 1730 1730 2030 1454 974 770 590 434 434 434 302 302 302 302 194 194 194 194 170 170 170 110 110 110 110 50 50 50 26 14

################################################################################

# Grid for Z=26 and Zeff=26
# Cost:             -6.10051
# Number of points: 19386
# Number of shells: 103

26 26
   PowerRTransform 1.0479090340991539e-09 20.136386560120116 103
   6 6 6 6 6 6 6 6 6 6 6 6 6 6 6 6 6 6 6 14 14 14 14 14 14 14 14 26 26 26 26 26 26 26 38 38 38 38 38 38 38 38 74 74 74 86 110 110 146 146 170 146 146 146 146 146 170 170 170 170 170 170 170 170 170 170 194 194 302 302 434 434 590 974 1202 1454 1454 1454 1202 770 590 434 434 302 302 302 194 194 194 170 170 170 170 110 110 110 86 74 50 50 38 26 14

################################################################################

# Grid for Z=27 and Zeff=27
# Cost:             -6.27566
# Number of points: 25946
# Number of shells: 123

27 27
   PowerRTransform 5.300575094952092e-10 25.210091014049542 123
   6 6 6 6 6 6 6 6 6 6 6 6 6 6 6 6 6 6 6 6 6 6 14 14 14 14 14 14 14 14 14 26 26 26 26 26 26 26 26 38 38 38 38 38 38 38 38 38 50 74 74 74 110 110 110 110 110 110 110 110 110 110 110 110 110 110 110 110 110 110 110 170 170 194 302 302 302 434 434 590 974 1202 1730 1202 1202 1202 2030 1454 1454 1202 770 590 434 434 434 302 302 302 194 194 194 194 170 170 110 110 110 110 110 110 110 110 110 86 86 86 86 50 50 50 38 14 6

################################################################################

# Grid for Z=28 and Zeff=28
# Cost:             -6.04315
# Number of points: 20302
# Number of shells: 103

28 28
   PowerRTransform 8.519114993520273e-10 16.37196484907859 103
   6 6 6 6 6 6 6 6 6 6 6 6 6 6 6 6 6 6 6 6 14 14 14 14 14 14 14 14 14 26 26 26 26 26 26 26 38 38 38 38 38 38 38 50 50 74 74 86 110 110 110 110 110 110 110 110 110 110 110 110 110 110 110 110 170 194 194 194 302 434 434 770 974 1202 1730 1202 974 770 974 974 1202 974 590 434 302 302 302 194 194 194 170 170 170 170 110 110 110 86 86 50 50 38 14

################################################################################

# Grid for Z=29 and Zeff=29
# Cost:             -6.12385
# Number of points: 36220
# Number of shells: 148

29 29
   PowerRTransform 1.8557619357102337e-10 22.713151543359082 148
   6 6 6 6 6 6 6 6 6 6 6 6 6 6 6 6 6 6 6 6 6 6 6 6 6 6 6 14 14 14 14 14 14 14 14 14 14 14 14 26 26 26 26 26 26 26 26 26 26 26 26 26 26 26 38 38 38 38 38 38 38 38 38 38 38 38 38 38 38 50 50 50 50 50 50 50 50 74 74 74 74 86 86 86 110 110 110 110 170 170 170 194 194 194 194 302 302 434 434 590 590 770 974 1202 1454 2030 2030 2030 2030 2030 2030 1730 1454 1202 770 770 590 590 434 434 434 434 302 302 302 302 302 302 266 194 194 170 170 170 170 170 146 110 110 110 110 86 74 50 38 14 6 6

################################################################################

# Grid for Z=30 and Zeff=30
# Cost:             -6.47792
# Number of points: 50232
# Number of shells: 178

30 30
   PowerRTransform 7.205990265607019e-11 22.681643277595864 178
   6 6 6 6 6 6 6 6 6 6 6 6 6 6 6 6 6 6 6 6 6 6 6 6 6 6 6 6 6 6 6 14 14 14 14 14 14 14 14 14 14 14 14 14 14 14 14 26 26 26 26 26 26 26 26 26 26 26 26 26 26 26 38 38 38 38 38 38 38 38 38 38 38 38 38 38 38 38 38 38 50 50 50 50 50 50 50 50 50 74 74 74 74 74 86 86 110 110 110 110 170 170 170 194 194 194 194 302 302 302 434 434 590 590 770 770 974 1202 1454 1730 2030 2030 2030 2030 1730 1454 1454 2030 2030 2030 1730 2030 1454 1202 974 770 770 590 434 434 434 434 434 302 302 302 302 302 302 302 266 194 194 194 194 194 194 170 170 170 170 170 110 110 110 110 110 110 110 86 86 86 50 50 50 38 14 14

################################################################################

# Grid for Z=31 and Zeff=31
# Cost:             -6.44904
# Number of points: 56758
# Number of shells: 213

31 31
   PowerRTransform 3.751568373834543e-11 29.61403701251748 213
   6 6 6 6 6 6 6 6 6 6 6 6 6 6 6 6 6 6 6 6 6 6 6 6 6 6 6 6 6 6 6 6 6 6 6 6 14 14 14 14 14 14 14 14 14 14 14 14 14 14 14 14 14 14 14 14 26 26 26 26 26 26 26 26 26 26 26 26 26 26 26 26 26 26 26 38 38 38 38 38 38 38 38 38 38 38 38 38 38 38 38 38 50 50 50 50 50 50 50 50 50 50 50 50 50 50 86 86 86 86 110 110 110 110 146 170 170 194 194 194 194 302 302 302 302 434 434 590 590 590 770 974 1202 1202 1454 1730 1454 2030 2030 2030 1730 1454 2030 1730 1454 1730 1730 2030 2030 2030 1730 1202 974 770 770 590 434 434 434 434 302 302 302 302 302 302 302 302 302 266 194 194 194 194 170 170 170 170 170 170 170 170 170 170 170 170 110 110 110 110 110 110 110 110 110 110 110 110 110 110 110 110 86 50 50 50 50 50 14 6 6 6 6

################################################################################

# Grid for Z=32 and Zeff=32
# Cost:             -6.50501
# Number of points: 43248
# Number of shells: 256

32 32
   PowerRTransform 1.463035542614595e-11 29.763364209737123 256
   6 6 6 6 6 6 6 6 6 6 6 6 6 6 6 6 6 6 6 6 6 6 6 6 6 6 6 6 6 6 6 6 6 6 6 6 6 6 6 6 6 6 6 6 6 14 14 14 14 14 14 14 14 14 14 14 14 14 14 14 14 14 14 14 14 14 14 14 14 14 14 14 26 26 26 26 26 26 26 26 26 26 26 26 26 26 26 26 26 26 26 26 26 26 26 26 26 38 38 38 38 38 38 38 38 38 38 38 38 38 38 38 38 38 38 38 50 50 50 50 50 50 50 50 50 50 50 50 50 50 50 50 50 74 74 86 86 86 86 86 86 110 110 110 110 110 146 170 170 170 170 194 194 194 194 194 194 302 302 302 302 434 434 434 590 590 590 770 770 974 974 1202 1454 2030 1730 1730 1454 1454 1730 1454 1202 974 770 590 590 590 434 434 434 434 434 434 302 302 302 302 302 302 266 194 194 194 194 194 194 170 170 170 170 170 170 170 110 110 110 110 110 110 110 110 110 110 110 110 110 110 110 110 110 86 74 86 86 86 86 86 86 86 86 86 86 86 50 50 50 50 50 50 50 14 14 14 14 14 14 6

################################################################################

# Grid for Z=33 and Zeff=33
# Cost:             -6.05513
# Number of points: 42460
# Number of shells: 178

33 33
   PowerRTransform 7.568526120346886e-11 23.813151857920438 178
   6 6 6 6 6 6 6 6 6 6 6 6 6 6 6 6 6 6 6 6 6 6 6 6 6 6 6 6 6 6 6 14 14 14 14 14 14 14 14 14 14 14 14 14 14 14 14 14 14 14 26 26 26 26 26 26 26 26 26 26 26 26 26 26 26 26 26 26 38 38 38 38 38 38 38 38 38 38 38 38 38 50 50 50 50 50 50 50 50 50 50 50 50 86 86 110 110 110 110 110 146 170 194 194 194 194 302 302 434 434 590 590 590 770 770 974 974 974 770 770 770 974 1202 1454 1730 2030 2030 2030 2030 2030 1730 1202 974 770 770 590 590 434 434 434 434 302 302 302 302 302 302 194 194 194 170 170 170 170 170 170 110 110 110 110 110 86 86 86 86 50 50 50 50 50 38 38 38 26 14 14 14 6

################################################################################

# Grid for Z=34 and Zeff=34
# Cost:             -6.16573
# Number of points: 12398
# Number of shells: 103

34 34
   PowerRTransform 2.298061285321858e-11 17.96211270675796 103
   6 6 6 6 6 6 6 6 6 6 6 6 6 6 6 6 6 6 6 6 6 6 6 6 6 6 6 14 14 14 14 14 14 14 14 14 14 14 14 14 26 26 26 26 26 26 26 26 26 26 26 26 26 38 38 38 38 38 38 50 50 50 50 50 50 74 86 86 110 110 170 170 194 302 302 302 434 590 974 1202 974 974 770 590 434 302 302 302 194 194 170 170 110 110 110 86 86 50 50 38 38 14 14

################################################################################

# Grid for Z=35 and Zeff=35
# Cost:             -6.25221
# Number of points: 51386
# Number of shells: 213

35 35
   PowerRTransform 3.38667284937005e-11 26.738134242675617 213
   6 6 6 6 6 6 6 6 6 6 6 6 6 6 6 6 6 6 6 6 6 6 6 6 6 6 6 6 6 6 6 6 6 6 6 14 14 14 14 14 14 14 14 14 14 14 14 14 14 14 14 14 14 14 14 14 26 26 26 26 26 26 26 26 26 26 26 26 26 26 26 26 26 26 26 26 26 26 26 26 38 38 38 38 38 38 38 38 38 38 38 38 38 50 50 50 50 50 50 50 50 50 50 50 50 74 86 86 86 86 110 110 110 110 110 146 146 170 170 194 194 194 194 302 302 302 302 434 434 590 590 590 770 974 770 974 974 770 974 770 770 974 1202 1202 1730 2030 2030 2030 2030 2030 2030 1730 1730 1454 1202 974 770 770 590 590 590 434 434 434 434 302 302 302 302 302 302 302 302 266 194 194 194 194 194 170 170 170 170 110 110 110 110 110 110 110 86 86 50 50 50 50 50 50 38 38 26 14 14 14 6 6 6 6 6 6 6 6 6

################################################################################

# Grid for Z=36 and Zeff=36
# Cost:             -7.70215
# Number of points: 41514
# Number of shells: 213

36 36
   PowerRTransform 7.566420074445342e-15 24.069719327197912 213
   6 6 6 6 6 6 6 6 6 6 6 6 6 6 6 6 6 6 6 6 6 6 6 6 6 6 6 6 6 6 6 6 6 6 6 6 6 6 6 6 6 6 6 6 6 6 6 6 6 6 6 6 6 6 6 6 14 14 14 14 14 14 14 14 14 14 14 14 14 14 14 14 14 14 14 14 14 14 26 26 26 26 26 26 26 26 26 26 26 26 26 26 26 26 26 26 26 26 26 26 26 26 26 38 38 38 38 38 38 38 38 38 38 38 38 38 50 50 50 50 50 50 50 50 50 50 50 74 74 74 86 86 86 110 110 110 110 110 170 170 194 194 194 194 194 302 302 302 302 434 590 590 770 770 974 1202 1730 2030 1202 1454 1730 1730 2030 2030 1730 1454 1730 1202 770 770 770 590 590 434 434 302 302 302 302 302 302 302 302 266 194 194 194 194 170 170 170 170 170 110 110 110 110 110 110 110 110 110 110 86 86 86 50 50 50 26 26 14 6

################################################################################

# Grid for Z=37 and Zeff=9
# Cost:             -6.16504
# Number of points: 29758
# Number of shells: 123

37 9
   PowerRTransform 1.0563627910757755e-06 28.00069812125699 123
   6 6 6 6 6 6 6 6 6 6 6 6 6 6 6 6 6 6 6 6 6 6 6 6 6 6 6 6 14 14 14 14 14 14 14 14 26 26 26 26 26 26 26 26 38 38 38 38 38 38 50 50 50 50 50 50 86 86 86 110 110 110 170 170 170 194 194 194 302 302 302 434 434 590 770 974 1202 1730 2030 2030 2030 2030 1730 1454 1202 974 770 590 590 434 302 302 302 302 302 194 194 194 194 194 170 170 110 110 110 110 110 110 86 86 86 50 50 50 50 50 38 38 38 14 14 14 14

################################################################################

# Grid for Z=38 and Zeff=10
# Cost:             -6.24691
# Number of points: 27266
# Number of shells: 103

38 10
   PowerRTransform 2.6511382524725997e-05 22.092338694090543 103
   6 6 6 6 6 6 6 6 6 6 6 6 6 6 14 14 14 14 14 14 14 14 14 26 26 26 26 26 26 38 38 38 38 38 38 50 50 50 50 50 50 74 86 86 110 110 110 110 170 170 170 194 194 302 302 302 434 590 770 770 1202 1454 1730 1730 2030 1730 1730 1454 974 770 590 590 434 434 434 302 302 302 302 302 302 194 194 170 170 170 170 110 110 110 110 110 110 86 86 86 50 50 50 26 26 26 6

################################################################################

# Grid for Z=39 and Zeff=11
# Cost:             -6.20670
# Number of points: 24838
# Number of shells: 85

39 11
   PowerRTransform 2.951666476874769e-05 20.082160474390125 85
   6 6 6 6 6 6 6 6 6 6 14 14 14 14 14 14 26 38 38 38 38 38 38 38 50 74 74 74 74 74 74 74 74 110 110 110 110 110 110 170 194 194 194 302 302 434 590 590 770 974 1202 1454 1202 1454 1730 1730 1730 1454 974 770 590 434 434 302 302 302 302 194 194 194 170 170 170 170 110 110 110 86 86 86 50 50 38 26 6

################################################################################

# Grid for Z=40 and Zeff=12
# Cost:             -6.22059
# Number of points: 22034
# Number of shells: 85

40 12
   PowerRTransform 1.771441540901334e-05 21.899586870211998 85
   6 6 6 6 6 6 6 6 6 14 14 14 14 14 14 38 38 38 50 74 74 74 86 86 86 110 110 110 110 110 110 110 110 110 170 170 170 194 194 194 194 194 194 302 302 302 434 590 770 974 1202 1202 1202 1454 1730 1730 1202 770 434 434 302 302 302 302 194 194 194 170 170 170 170 110 110 110 110 110 110 86 86 74 50 50 38 26 14

################################################################################

# Grid for Z=41 and Zeff=13
# Cost:             -6.35877
# Number of points: 23678
# Number of shells: 85

41 13
   PowerRTransform 4.221242583641072e-06 21.274273499034386 85
   6 6 6 6 6 6 6 6 6 6 6 14 14 14 14 14 14 38 38 38 50 74 74 74 86 86 86 110 110 110 110 110 110 110 146 170 170 170 170 170 194 194 194 302 302 302 434 434 590 770 1202 1454 1202 974 1454 1730 1454 1454 974 770 770 590 434 302 302 302 194 194 194 170 170 170 110 110 110 110 110 110 86 50 50 50 26 14 6

################################################################################

# Grid for Z=42 and Zeff=14
# Cost:             -6.20552
# Number of points: 15662
# Number of shells: 71

42 14
   PowerRTransform 9.16241871844143e-06 19.867896295981065 71
   6 6 6 6 6 6 6 6 6 14 14 14 14 26 38 38 50 74 86 110 110 110 110 110 110 110 146 170 170 170 170 194 194 194 302 302 302 302 266 194 302 302 434 590 770 974 1454 1202 1202 590 590 434 302 302 302 194 194 170 170 170 110 110 110 86 86 50 50 50 50 38 6

################################################################################

# Grid for Z=43 and Zeff=15
# Cost:             -6.22295
# Number of points: 15170
# Number of shells: 71

43 15
   PowerRTransform 8.865105795488791e-06 19.925747918180505 71
   6 6 6 6 6 6 6 6 6 14 14 14 14 14 38 38 50 74 74 86 110 110 110 110 110 110 170 170 170 170 170 194 230 266 266 266 266 266 266 266 302 302 302 434 770 974 1202 1454 974 590 590 434 302 302 194 194 194 194 194 170 110 110 110 110 110 86 50 50 50 26 6

################################################################################

# Grid for Z=44 and Zeff=16
# Cost:             -6.07595
# Number of points: 15582
# Number of shells: 71

44 16
   PowerRTransform 2.2533920022306317e-05 17.408620286001792 71
   6 6 6 6 6 6 6 6 14 14 14 14 14 38 38 38 50 74 74 74 86 110 110 110 110 110 110 170 170 170 170 170 170 170 170 170 170 194 302 302 434 590 770 770 974 974 1202 1202 974 590 434 302 302 302 302 194 194 170 170 170 110 110 110 110 86 86 50 50 50 38 14

################################################################################

# Grid for Z=45 and Zeff=17
# Cost:             -6.13118
# Number of points: 15638
# Number of shells: 71

45 17
   PowerRTransform 1.7811384248824792e-06 18.270309479396825 71
   6 6 6 6 6 6 6 6 6 6 14 14 14 14 26 38 38 74 74 110 110 110 110 110 170 170 170 170 170 170 170 194 194 194 266 266 302 302 302 302 266 230 194 302 302 434 590 590 974 1454 1454 770 590 434 434 302 302 194 194 170 170 170 110 110 110 110 86 50 50 50 14

################################################################################

# Grid for Z=46 and Zeff=18
# Cost:             -6.06727
# Number of points: 15662
# Number of shells: 71

46 18
   PowerRTransform 5.3775767348710324e-06 18.850755922055907 71
   6 6 6 6 6 6 6 6 6 14 14 14 14 14 26 38 38 38 50 74 74 74 86 86 86 86 110 110 110 110 110 110 110 110 110 170 194 194 302 302 434 770 974 1202 974 974 770 1202 1202 770 434 434 302 302 302 194 194 170 170 170 110 110 110 86 86 50 50 50 14 14 6

################################################################################

# Grid for Z=47 and Zeff=19
# Cost:             -6.42647
# Number of points: 26122
# Number of shells: 103

47 19
   PowerRTransform 1.4557201826414425e-07 18.80812647711814 103