# -*- coding: utf-8 -*-
# HORTON: Helpful Open-source Research TOol for N-fermion systems.
# Copyright (C) 2011-2019 The HORTON Development Team
#
# This file is part of HORTON.
#
# HORTON is free software; you can redistribute it and/or
# modify it under the terms of the GNU General Public License
# as published by the Free Software Foundation; either version 3
# of the License, or (at your option) any later version.
#
# HORTON is distributed in the hope that it will be useful,
# but WITHOUT ANY WARRANTY; without even the implied warranty of
# MERCHANTABILITY or FITNESS FOR A PARTICULAR PURPOSE.  See the
# GNU General Public License for more details.
#
# You should have received a copy of the GNU General Public License
# along with this program; if not, see <http://www.gnu.org/licenses/>
#
# --


## These grids were created by Toon Verstraelen in July 2013 in a second effort
## to generate tuned grids based on a series of diatomic benchmarks computed
## with the QZVP basis of Ahlrichs and coworkers. They are constructed to give
## on average 5 digits of precision for a variety of molecular integrals, using
## the Becke scheme with k=3.


# Cost threshold for grid selection:   -5.00000

# Grid for Z=1 and Zeff=1
# Cost:             -5.88966
# Number of points: 1984
# Number of shells: 34

1 1
   PowerRTransform 2.577533167224667e-07 16.276983371222354 34
   6 6 6 6 6 6 6 6 6 6 6 14 14 14 26 38 38 50 50 86 110 170 194 194 170 110 110 110 110 110 86 50 50 14

################################################################################

# Grid for Z=2 and Zeff=2
# Cost:             -5.51136
# Number of points: 2104
# Number of shells: 34

2 2
   PowerRTransform 3.2755036736843646e-07 20.13904927593614 34
   6 6 6 6 6 6 6 6 6 6 14 14 26 38 38 50 74 110 110 170 170 170 170 170 110 110 110 110 110 86 50 14 14 6

################################################################################

# Grid for Z=3 and Zeff=3
# Cost:             -5.33252
# Number of points: 8066
# Number of shells: 71

3 3
   PowerRTransform 6.186114573134926e-09 18.12176164518007 71
   6 6 6 6 6 6 6 6 6 6 6 6 6 6 6 6 6 6 6 6 6 6 6 6 6 6 6 14 14 14 14 14 14 14 26 26 38 38 38 50 50 50 86 110 170 194 302 302 434 590 770 590 590 770 590 434 302 194 170 170 110 110 110 110 86 50 50 50 26 14 6

################################################################################

# Grid for Z=4 and Zeff=4
# Cost:             -5.65526
# Number of points: 6378
# Number of shells: 59

4 4
   PowerRTransform 1.4059661477491232e-08 15.44201607973657 59
   6 6 6 6 6 6 6 6 6 6 6 6 6 6 6 6 6 6 6 6 14 14 14 14 14 14 26 26 38 38 38 50 50 86 110 170 194 302 434 770 434 434 302 302 434 434 194 194 170 170 110 110 110 110 110 86 50 50 38

################################################################################

# Grid for Z=5 and Zeff=5
# Cost:             -5.27953
# Number of points: 3558
# Number of shells: 49

5 5
   PowerRTransform 3.273788764659501e-08 13.56903494126234 49
   6 6 6 6 6 6 6 6 6 6 6 6 6 6 6 6 14 14 14 14 14 14 26 26 26 38 38 50 50 50 110 110 170 194 302 434 302 302 194 170 170 110 110 110 86 86 50 50 14

################################################################################

# Grid for Z=6 and Zeff=6
# Cost:             -5.83205
# Number of points: 5214
# Number of shells: 59

6 6
   PowerRTransform 3.11827230204136e-08 34.864731811979844 59
   6 6 6 6 6 6 6 6 6 6 6 6 6 14 14 14 14 14 14 14 26 26 38 38 38 50 86 86 86 86 110 110 170 194 302 302 590 434 302 194 170 170 170 170 110 110 110 110 110 110 110 110 86 50 50 6 6 6 6

################################################################################

# Grid for Z=7 and Zeff=7
# Cost:             -5.29263
# Number of points: 3354
# Number of shells: 49

7 7
   PowerRTransform 3.401062176724264e-08 14.764587345673986 49
   6 6 6 6 6 6 6 6 6 6 6 6 6 14 14 14 14 14 14 14 26 26 38 38 50 74 74 74 74 86 110 110 194 194 302 302 302 194 170 110 110 110 110 86 86 50 50 14 14

################################################################################

# Grid for Z=8 and Zeff=8
# Cost:             -5.26897
# Number of points: 5414
# Number of shells: 59

8 8
   PowerRTransform 1.3926503705988068e-08 15.016481365384685 59
   6 6 6 6 6 6 6 6 6 6 6 6 6 6 6 6 14 14 14 14 14 14 14 14 26 26 38 38 50 50 50 86 110 110 170 194 434 590 434 434 302 302 194 194 170 110 110 110 110 110 110 110 110 110 86 50 50 14 14

################################################################################

# Grid for Z=9 and Zeff=9
# Cost:             -5.36718
# Number of points: 6302
# Number of shells: 59

9 9
   PowerRTransform 1.1147270392375693e-08 12.748095827643704 59
   6 6 6 6 6 6 6 6 6 6 6 6 6 6 6 6 14 14 14 14 14 14 14 14 26 26 38 38 38 50 50 86 86 86 170 194 302 590 590 434 302 302 302 302 302 302 194 194 170 170 110 110 110 110 110 86 50 50 14

################################################################################

# Grid for Z=10 and Zeff=10
# Cost:             -5.52436
# Number of points: 5606
# Number of shells: 59

10 10
   PowerRTransform 1.6588702526298265e-08 18.151260320096828 59
   6 6 6 6 6 6 6 6 6 6 6 6 6 6 6 14 14 14 14 14 14 14 14 26 26 38 38 38 50 50 86 86 170 194 434 434 302 434 302 302 302 302 266 194 194 170 110 110 110 110 110 110 86 86 50 50 14 14 6

################################################################################

# Grid for Z=11 and Zeff=11
# Cost:             -5.33947
# Number of points: 10110
# Number of shells: 85

11 11
   PowerRTransform 3.003120602822434e-09 21.596666254555863 85
   6 6 6 6 6 6 6 6 6 6 6 6 6 6 6 6 6 6 6 6 6 6 6 6 6 14 14 14 14 14 14 14 14 14 14 14 14 14 14 14 14 26 26 26 26 38 38 38 38 50 50 50 86 86 110 170 170 194 302 302 434 590 974 1202 1202 770 434 302 302 302 194 194 170 170 110 110 110 86 50 50 50 38 38 14 14

################################################################################

# Grid for Z=12 and Zeff=12
# Cost:             -5.06886
# Number of points: 8158
# Number of shells: 71

12 12
   PowerRTransform 5.9819613661137094e-09 16.828409532166827 71
   6 6 6 6 6 6 6 6 6 6 6 6 6 6 6 6 6 6 6 6 6 14 14 14 14 14 14 14 14 14 14 14 14 14 14 26 26 26 38 38 50 50 50 86 86 86 170 194 302 434 302 434 434 770 770 974 590 302 302 194 170 170 170 110 110 110 86 74 50 38 14

################################################################################

# Grid for Z=13 and Zeff=13
# Cost:             -5.00667
# Number of points: 6370
# Number of shells: 71

13 13
   PowerRTransform 7.58358121259898e-09 21.572146722677854 71
   6 6 6 6 6 6 6 6 6 6 6 6 6 6 6 6 6 6 14 14 14 14 14 14 14 14 14 14 14 14 14 26 26 26 38 38 38 38 38 50 50 50 86 86 110 170 194 302 302 434 434 770 590 434 302 194 170 170 110 110 110 110 110 86 86 50 50 50 14 14 14

################################################################################

# Grid for Z=14 and Zeff=14
# Cost:             -5.39756
# Number of points: 7238
# Number of shells: 71

14 14
   PowerRTransform 8.373611591213212e-09 23.96629707958869 71
   6 6 6 6 6 6 6 6 6 6 6 6 6 6 6 6 14 14 14 14 14 14 14 14 14 14 14 14 26 26 26 26 38 38 38 38 38 50 50 50 74 86 110 110 170 302 302 434 770 974 770 434 302 194 194 170 170 110 110 110 110 110 86 50 50 50 50 50 50 14 14

################################################################################

# Grid for Z=15 and Zeff=15
# Cost:             -5.59945
# Number of points: 10506
# Number of shells: 85

15 15
   PowerRTransform 2.297851714218129e-09 16.418299079716235 85
   6 6 6 6 6 6 6 6 6 6 6 6 6 6 6 6 6 6 6 6 6 6 14 14 14 14 14 14 14 14 14 14 14 14 14 14 26 26 26 26 26 38 38 38 38 50 50 50 74 86 110 110 170 170 194 302 302 434 770 974 770 590 590 770 434 590 434 302 194 194 170 170 110 110 110 86 86 86 50 50 50 38 38 14 14

################################################################################

# Grid for Z=16 and Zeff=16
# Cost:             -6.04757
# Number of points: 12162
# Number of shells: 85

16 16
   PowerRTransform 3.1813786400179616e-09 22.79566890037017 85
   6 6 6 6 6 6 6 6 6 6 6 6 6 6 6 6 6 6 6 14 14 14 14 14 14 14 14 14 14 14 14 14 26 26 26 26 26 26 38 38 38 38 50 50 50 86 86 110 110 170 194 302 302 434 770 974 1202 770 770 770 974 770 434 302 302 194 194 170 170 110 110 110 86 86 86 50 50 50 50 14 14 14 6 6 6

################################################################################

# Grid for Z=17 and Zeff=17
# Cost:             -5.33519
# Number of points: 6770
# Number of shells: 71

17 17
   PowerRTransform 6.578265835890989e-09 18.74786834668225 71
   6 6 6 6 6 6 6 6 6 6 6 6 6 6 6 6 14 14 14 14 14 14 14 14 14 14 14 14 14 26 26 26 26 38 38 38 38 50 50 50 50 74 86 110 110 170 194 302 302 434 590 770 590 434 302 302 194 170 170 110 110 110 86 86 50 50 50 38 14 14 14

################################################################################

# Grid for Z=18 and Zeff=18
# Cost:             -5.33191
# Number of points: 11014
# Number of shells: 85

18 18
   PowerRTransform 2.7411385440998967e-09 19.555180372886927 85
   6 6 6 6 6 6 6 6 6 6 6 6 6 6 6 6 6 6 6 6 14 14 14 14 14 14 14 14 14 14 14 14 14 26 26 26 26 26 38 38 38 38 38 50 50 50 50 86 110 110 170 170 194 302 302 590 770 974 770 770 590 590 770 434 302 302 194 194 170 170 170 110 110 110 110 110 86 86 74 50 50 50 14 14 14

################################################################################

# Grid for Z=19 and Zeff=19
# Cost:             -5.42040
# Number of points: 14590
# Number of shells: 103

19 19
   PowerRTransform 1.089946590791849e-09 20.952936209264042 103
   6 6 6 6 6 6 6 6 6 6 6 6 6 6 6 6 6 6 6 6 6 6 6 6 6 6 6 6 14 14 14 14 14 14 14 14 14 14 14 14 14 14 14 14 14 26 26 26 26 26 26 26 26 26 26 38 38 38 38 38 50 50 50 50 74 86 86 110 110 110 170 194 194 302 302 434 590 974 1202 1202 1730 1202 770 590 434 302 302 302 266 194 194 194 170 170 110 110 110 86 50 50 38 14 6

################################################################################

# Grid for Z=20 and Zeff=20
# Cost:             -5.77307
# Number of points: 16962
# Number of shells: 103

20 20
   PowerRTransform 1.167544045884533e-09 22.376677702840254 103
   6 6 6 6 6 6 6 6 6 6 6 6 6 6 6 6 6 6 6 6 6 6 6 6 6 14 14 14 14 14 14 14 14 14 14 14 14 26 26 26 26 26 26 26 26 26 26 26 26 38 38 38 38 38 38 50 50 50 50 74 86 86 110 110 110 146 194 302 302 434 590 590 590 590 590 770 1202 1454 1730 1202 770 590 434 302 302 302 302 194 194 170 170 170 110 110 110 86 86 50 50 50 38 38 14

################################################################################

# Grid for Z=21 and Zeff=21
# Cost:             -5.78728
# Number of points: 16402
# Number of shells: 103

21 21
   PowerRTransform 1.10777797534853e-09 21.260508469961408 103
   6 6 6 6 6 6 6 6 6 6 6 6 6 6 6 6 6 6 6 6 6 6 6 14 14 14 14 14 14 14 14 26 26 26 26 26 26 26 26 26 26 38 38 38 38 38 38 38 50 50 74 74 74 74 74 74 74 74 74 74 86 86 86 86 110 110 110 170 170 194 302 302 302 434 590 974 1202 1730 1454 1202 770 770 434 434 302 302 302 194 194 170 170 170 110 110 110 110 110 86 86 50 50 38 14

################################################################################

# Grid for Z=22 and Zeff=22
# Cost:             -5.16868
# Number of points: 10986
# Number of shells: 85

22 22
   PowerRTransform 2.746202778795927e-09 19.350116266638185 85
   6 6 6 6 6 6 6 6 6 6 6 6 6 6 6 6 6 6 6 6 14 14 14 14 14 14 26 26 26 26 26 26 26 38 38 38 38 38 38 50 74 74 74 74 74 74 74 86 86 86 110 110 110 110 110 110 170 194 194 302 434 590 590 974 974 974 770 590 302 302 194 194 170 170 170 110 110 110 86 86 50 50 14 6 6

################################################################################

# Grid for Z=23 and Zeff=23
# Cost:             -5.20024
# Number of points: 10850
# Number of shells: 85

23 23
   PowerRTransform 2.9402748888394357e-09 21.39933482952019 85
   6 6 6 6 6 6 6 6 6 6 6 6 6 6 6 6 6 6 14 14 14 14 14 14 14 26 26 26 26 26 26 38 38 38 38 38 38 50 74 74 86 110 110 110 110 110 110 110 110 110 110 110 146 146 146 170 170 194 302 434 590 590 770 974 974 590 434 302 302 194 194 170 170 170 110 110 86 86 50 50 50 50 14 14 14

################################################################################

# Grid for Z=24 and Zeff=24
# Cost:             -5.65956
# Number of points: 11438
# Number of shells: 85

24 24
   PowerRTransform 2.7579341642634884e-09 19.83428261878494 85
   6 6 6 6 6 6 6 6 6 6 6 6 6 6 6 6 6 6 14 14 14 14 14 14 26 26 26 26 26 26 38 38 38 38 38 38 38 74 74 86 110 110 110 110 110 110 110 110 110 146 146 146 146 146 110 170 194 194 302 434 590 770 770 974 974 770 434 302 302 194 194 170 170 170 110 110 110 110 86 50 50 38 6 6 6

################################################################################

# Grid for Z=25 and Zeff=25
# Cost:             -5.72613
# Number of points: 13066
# Number of shells: 85

25 25
   PowerRTransform 2.506969959804919e-09 17.92147397464149 85
   6 6 6 6 6 6 6 6 6 6 6 6 6 6 6 6 6 6 14 14 14 14 14 14 14 26 26 26 26 26 26 38 38 38 38 38 38 50 74 74 110 110 110 110 110 110 110 110 110 110 110 110 170 170 194 194 302 434 590 434 590 770 770 770 974 1202 770 434 302 302 302 194 170 170 170 110 110 110 86 50 50 38 14 6 6

################################################################################

# Grid for Z=26 and Zeff=26
# Cost:             -5.77317
# Number of points: 12358
# Number of shells: 85

26 26
   PowerRTransform 2.523212584292888e-09 18.113798778890985 85
   6 6 6 6 6 6 6 6 6 6 6 6 6 6 6 6 6 14 14 14 14 14 14 14 26 26 26 26 26 26 38 38 38 38 38 38 38 74 74 86 110 110 110 110 110 110 110 110 110 110 146 146 110 110 110 170 170 194 302 302 434 590 770 1202 1202 974 590 434 302 302 302 194 194 170 170 170 110 110 110 86 86 50 50 26 14

################################################################################

# Grid for Z=27 and Zeff=27
# Cost:             -5.11953
# Number of points: 9854
# Number of shells: 85

27 27
   PowerRTransform 4.744390728782565e-09 34.30270780321776 85
   6 6 6 6 6 6 6 6 6 6 6 6 6 6 6 6 14 14 14 14 14 14 26 26 26 26 26 38 38 38 38 38 38 74 74 86 86 86 86 86 86 86 86 86 86 86 110 110 194 302 302 434 302 974 590 590 770 770 590 302 302 194 194 170 170 110 110 110 86 86 50 50 50 50 50 38 14 6 6 6 6 6 6 6 6

################################################################################

# Grid for Z=28 and Zeff=28
# Cost:             -5.60874
# Number of points: 13142
# Number of shells: 85

28 28
   PowerRTransform 2.350841751293044e-09 16.932289049448002 85
   6 6 6 6 6 6 6 6 6 6 6 6 6 6 6 6 6 14 14 14 14 14 14 14 26 26 26 26 26 26 38 38 38 38 38 38 50 50 74 86 110 110 110 110 110 110 110 110 110 110 110 110 110 170 194 194 302 434 434 590 974 590 770 770 770 974 974 434 302 302 302 194 194 170 170 110 110 110 86 86 50 50 38 14 6

################################################################################

# Grid for Z=29 and Zeff=29
# Cost:             -5.43164
# Number of points: 16286
# Number of shells: 103

29 29
   PowerRTransform 9.843092065564594e-10 18.888340007851557 103
   6 6 6 6 6 6 6 6 6 6 6 6 6 6 6 6 6 6 6 6 6 6 6 14 14 14 14 14 14 14 14 14 26 26 26 26 26 26 26 26 26 26 26 26 26 38 38 38 38 38 38 38 38 38 50 50 50 50 50 50 74 86 86 110 110 110 170 170 194 194 302 302 434 590 770 974 1454 1730 1202 974 770 590 434 434 302 302 302 194 194 194 194 170 170 110 110 110 110 86 86 50 50 38 6

################################################################################

# Grid for Z=30 and Zeff=30
# Cost:             -5.40239
# Number of points: 18882
# Number of shells: 103

30 30
   PowerRTransform 1.0768549234739597e-09 20.652740486523665 103
   6 6 6 6 6 6 6 6 6 6 6 6 6 6 6 6 6 6 6 6 6 14 14 14 14 14 14 14 14 14 26 26 26 26 26 26 26 26 26 26 26 38 38 38 38 38 38 38 38 38 38 50 50 50 50 50 50 86 110 110 110 170 194 194 302 302 434 590 770 974 974 1730 1202 974 974 974 1202 974 590 434 302 302 302 266 194 194 194 170 170 170 170 110 110 110 110 86 86 86 50 50 38 14 6

################################################################################

# Grid for Z=31 and Zeff=31
# Cost:             -5.21382
# Number of points: 26582
# Number of shells: 123

31 31
   PowerRTransform 6.188017478991146e-10 29.4174935749708 123
   6 6 6 6 6 6 6 6 6 6 6 6 6 6 6 6 6 6 6 6 6 6 14 14 14 14 14 14 14 14 14 14 14 14 26 26 26 26 26 26 26 26 26 26 26 26 38 38 38 38 38 38 38 38 38 50 50 50 50 50 50 50 86 86 110 110 110 170 194 194 194 302 434 434 590 770 974 1202 1730 1730 1730 1202 1202 1454 1454 1454 1202 770 590 434 302 302 302 302 302 194 194 194 170 170 170 170 110 110 110 110 110 110 110 110 110 110 110 110 86 50 50 50 14 6 6 6 6

################################################################################

# Grid for Z=32 and Zeff=32
# Cost:             -5.16721
# Number of points: 24992
# Number of shells: 148

32 32
   PowerRTransform 3.055246063471103e-10 37.391722877573585 148
   6 6 6 6 6 6 6 6 6 6 6 6 6 6 6 6 6 6 6 6 6 6 6 6 14 14 14 14 14 14 14 14 14 14 14 14 14 14 14 26 26 26 26 26 26 26 26 26 26 26 26 26 38 38 38 38 38 38 38 38 38 38 38 50 50 50 50 50 50 50 50 50 50 74 86 86 86 110 110 110 170 170 170 194 194 194 302 302 434 434 590 590 770 974 1202 1454 1730 1454 1730 1202 974 770 590 434 434 434 434 302 302 302 302 194 194 194 170 170 170 170 110 110 110 110 110 110 110 110 110 86 86 86 86 86 86 86 86 50 50 50 14 14 14 14 6 6 6 6 6 6

################################################################################

# Grid for Z=33 and Zeff=33
# Cost:             -5.24962
# Number of points: 28534
# Number of shells: 123

33 33
   PowerRTransform 4.808816730665759e-10 22.858274814681398 123
   6 6 6 6 6 6 6 6 6 6 6 6 6 6 6 6 6 6 6 6 6 6 14 14 14 14 14 14 14 14 14 14 14 14 14 26 26 26 26 26 26 26 26 26 26 26 26 38 38 38 38 38 38 38 38 38 38 50 50 50 50 50 50 50 50 86 110 110 110 110 170 194 194 194 302 434 434 590 770 770 974 770 770 770 974 1202 1730 2030 2030 2030 1730 1202 770 590 590 434 434 302 302 302 302 302 194 194 170 170 170 170 110 110 110 110 86 86 50 50 50 50 38 38 26 14 14

################################################################################

# Grid for Z=34 and Zeff=34
# Cost:             -5.30024
# Number of points: 6070
# Number of shells: 71

34 34
   PowerRTransform 6.632348945772076e-11 16.198268042509657 71
   6 6 6 6 6 6 6 6 6 6 6 6 6 6 6 6 6 6 6 6 6 14 14 14 14 14 14 14 14 14 14 26 26 26 26 26 26 26 26 26 38 38 38 38 38 50 50 50 86 110 110 170 194 302 434 590 770 770 434 302 194 194 110 110 110 86 50 38 38 14 14

################################################################################

# Grid for Z=35 and Zeff=35
# Cost:             -5.19358
# Number of points: 7506
# Number of shells: 85

35 35
   PowerRTransform 4.3301047214875017e-14 16.309446059148527 85
   6 6 6 6 6 6 6 6 6 6 6 6 6 6 6 6 6 6 6 6 6 6 6 6 6 6 6 6 6 6 6 14 14 14 14 14 14 14 14 14 14 26 26 26 26 26 26 26 26 26 26 26 38 38 38 38 38 50 50 86 86 110 170 194 302 302 434 434 434 590 770 770 434 302 194 194 170 170 110 110 86 50 50 38 14

################################################################################

# Grid for Z=36 and Zeff=36
# Cost:             -5.31880
# Number of points: 37152
# Number of shells: 148

36 36
   PowerRTransform 1.9525491942801685e-10 23.897989168467937 148
   6 6 6 6 6 6 6 6 6 6 6 6 6 6 6 6 6 6 6 6 6 6 6 6 6 14 14 14 14 14 14 14 14 14 14 14 14 14 14 26 26 26 26 26 26 26 26 26 26 26 26 26 26 26 26 26 38 38 38 38 38 38 38 38 38 38 50 50 50 50 50 50 50 50 50 74 74 86 86 86 110 110 110 146 170 170 194 194 194 302 302 302 434 434 590 770 770 974 1202 1730 1730 1730 2030 2030 2030 2030 2030 1730 1202 974 770 770 590 434 434 434 302 302 302 302 302 302 266 266 194 194 194 170 170 170 170 110 110 110 110 110 110 110 110 110 86 86 50 50 50 26 14 14

################################################################################

# Grid for Z=37 and Zeff=9
# Cost:             -5.22137
# Number of points: 15870
# Number of shells: 85

37 9
   PowerRTransform 1.3116816051165964e-05 25.107553485889394 85
   6 6 6 6 6 6 6 6 6 6 6 6 6 6 6 6 6 6 6 14 14 14 14 14 14 26 26 26 26 26 26 38 38 38 38 50 50 50 50 86 86 110 110 170 170 194 194 302 302 434 590 590 974 1454 1730 1454 1202 770 770 434 434 302 302 194 194 194 194 170 146 110 110 110 86 86 86 50 50 50 38 38 38 14 14 14 14

################################################################################

# Grid for Z=38 and Zeff=10
# Cost:             -5.33177
# Number of points: 14598
# Number of shells: 71

38 10
   PowerRTransform 0.00012337243816711258 20.15779186049731 71
   6 6 6 6 6 6 6 6 6 6 6 14 14 14 14 14 14 26 26 26 26 38 38 38 38 38 50 50 50 50 86 86 110 110 170 170 194 194 302 434 590 770 974 1454 1454 1454 974 770 590 434 302 302 194 194 194 194 170 170 110 110 110 110 86 86 86 50 50 50 26 26 14

################################################################################

# Grid for Z=39 and Zeff=11
# Cost:             -5.18339
# Number of points: 12542
# Number of shells: 59

39 11
   PowerRTransform 0.00026254231985602306 18.42725236767048 59
   6 6 6 6 6 6 14 14 14 14 14 38 38 38 38 38 38 38 74 74 74 74 74 86 110 110 170 170 194 194 302 434 590 590 770 770 974 1202 1202 770 590 434 302 302 194 194 194 170 110 110 110 110 86 86 50 50 38 26 6

################################################################################

# Grid for Z=40 and Zeff=12
# Cost:             -5.28074
# Number of points: 11494
# Number of shells: 59

40 12
   PowerRTransform 0.00022729864142629063 19.240323445476516 59
   6 6 6 6 6 6 14 14 14 38 38 38 50 74 74 74 74 74 86 110 110 110 110 110 110 110 170 170 194 194 302 434 590 590 770 974 974 974 770 434 434 302 194 194 194 170 110 110 110 110 110 86 86 86 50 50 38 38 14

################################################################################

# Grid for Z=41 and Zeff=13
# Cost:             -5.41467
# Number of points: 12882
# Number of shells: 59

41 13
   PowerRTransform 0.00022332978749485058 18.43051033247378 59
   6 6 6 6 6 14 14 14 14 38 38 38 50 74 74 74 74 86 110 110 110 110 146 170 170 170 170 194 194 302 434 590 770 974 770 974 974 974 770 434 434 302 302 194 194 170 170 110 110 110 110 110 86 50 50 50 38 26 14

################################################################################

# Grid for Z=42 and Zeff=14
# Cost:             -5.45200
# Number of points: 10638
# Number of shells: 59

42 14
   PowerRTransform 4.312335817136105e-05 18.796698566238717 59
   6 6 6 6 6 6 6 14 14 14 14 38 38 50 74 86 86 110 110 110 110 110 146 170 170 170 194 194 194 194 194 194 194 302 302 434 590 974 974 974 590 434 302 302 194 194 170 170 110 110 110 86 50 50 50 50 38 38 6

################################################################################

# Grid for Z=43 and Zeff=15
# Cost:             -5.22035
# Number of points: 7530
# Number of shells: 49

43 15
   PowerRTransform 0.0001439045024590461 18.262366596363997 49
   6 6 6 6 6 14 14 14 14 38 38 74 74 74 86 110 110 110 146 170 170 170 194 230 230 194 194 302 302 434 590 770 590 434 302 194 170 170 170 110 110 110 86 50 50 50 26 6 6

################################################################################

# Grid for Z=44 and Zeff=16
# Cost:             -5.04032
# Number of points: 7450
# Number of shells: 49

44 16
   PowerRTransform 0.0002705098774739686 15.620015640557597 49
   6 6 6 6 6 14 14 14 26 38 38 50 74 74 74 110 110 110 110 110 110 110 110 110 170 170 302 302 434 590 590 770 590 434 302 194 194 170 170 110 110 110 86 50 50 50 38 14 14

################################################################################

# Grid for Z=45 and Zeff=17
# Cost:             -5.06067
# Number of points: 7394
# Number of shells: 49

45 17
   PowerRTransform 3.666445913651392e-05 16.50582512555016 49
   6 6 6 6 6 6 14 14 14 38 38 74 86 110 110 110 110 110 110 110 170 170 170 170 170 170 110 170 194 194 302 434 590 770 590 434 302 194 194 170 110 110 110 86 86 50 50 26 14

################################################################################

# Grid for Z=46 and Zeff=18
# Cost:             -5.32314
# Number of points: 11070
# Number of shells: 59

46 18
   PowerRTransform 3.644416354245693e-05 16.89283645207093 59
   6 6 6 6 6 6 6 14 14 14 14 38 38 38 38 50 74 74 74 74 74 86 86 86 86 86 110 110 110 170 194 302 434 590 770 974 974 590 770 770 590 434 302 302 194 194 170 170 110 110 110 86 86 86 50 50 38 14 6

################################################################################

# Grid for Z=47 and Zeff=19
# Cost:             -5.00878
# Number of points: 8782
# Number of shells: 59

47 19
   PowerRTransform 4.076886839028324e-06 15.848411073664625 59
   6 6 6 6 6 6 6 6 6 6 6 14 14 14 14 14 14 26 26 26 38 38 38 38 38 38 38 50 50 50 86 110 170 194 194 302 434 590 770 770 590 590 770 590 434 302 194 194 170 110 110 110 110 86 50 50 38 14 6

################################################################################

# Grid for Z=48 and Zeff=20
# Cost:             -5.47509
# Number of points: 11926
# Number of shells: 71

48 20
   PowerRTransform 6.970977432467025e-07 22.788090976720063 71
   6 6 6 6 6 6 6 6 6 6 6 6 6 6 14 14 14 14 14 14 14 26 26 26 26 38 38 38 38 38 38 38 50 50 86 86 110 110 170 194 302 434 590 974 1202 770 770 974 974 770 434 302 302 194 170 170 170 170 110 110 110 86 86 86 50 50 50 50 38 14 6

################################################################################

# Grid for Z=49 and Zeff=21
# Cost:             -5.16398
# Number of points: 7122
# Number of shells: 59

49 21
   PowerRTransform 6.295388435898326e-07 16.528521880671736 59
   6 6 6 6 6 6 6 6 6 6 6 6 6 14 14 14 14 14 14 14 26 26 38 38 38 38 38 38 38 50 50 50 50 110 110 194 194 302 434 434 302 434 590 770 590 434 302 194 170 170 170 110 110 110 86 50 38 14 6

################################################################################

# Grid for Z=50 and Zeff=22
# Cost:             -5.37986
# Number of points: 8482
# Number of shells: 71

50 22
   PowerRTransform 5.737464545147426e-08 15.957552298428514 71
   6 6 6 6 6 6 6 6 6 6 6 6 6 6 6 6 6 6 14 14 14 14 14 14 14 14 26 26 26 26 26 38 38 38 38 38 38 38 38 50 50 50 74 86 110 110 170 194 194 302 434 590 770 974 974 590 434 302 194 194 170 170 110 110 110 86 74 50 50 38 14

################################################################################

# Grid for Z=51 and Zeff=23
# Cost:             -5.27371
# Number of points: 9974
# Number of shells: 71

51 23
   PowerRTransform 4.2786625564460944e-08 16.134070100096796 71
   6 6 6 6 6 6 6 6 6 6 6 6 6 6 6 6 6 6 14 14 14 14 14 14 14 14 26 26 26 26 38 38 38 38 38 38 38 38 38 50 50 86 110 110 170 194 302 434 590 770 770 770 770 770 770 590 434 302 194 194 170 170 110 110 110 50 50 50 38 14 6

################################################################################

# Grid for Z=52 and Zeff=24
# Cost:             -5.16230
# Number of points: 8438
# Number of shells: 71

52 24
   PowerRTransform 2.92986601404113e-08 15.709608688491917 71
   6 6 6 6 6 6 6 6 6 6 6 6 6 6 6 6 6 6 6 14 14 14 14 14 14 14 14 26 26 26 26 38 38 38 38 38 38 38 38 50 50 50 86 110 110 170 170 194 302 434 590 590 590 770 770 770 434 302 302 194 170 110 110 110 86 50 50 38 14 14 14

################################################################################

# Grid for Z=53 and Zeff=25
# Cost:             -5.25056
# Number of points: 8174
# Number of shells: 71

53 25
   PowerRTransform 2.6372540021175668e-08 15.904602040581757 71
   6 6 6 6 6 6 6 6 6 6 6 6 6 6 6 6 6 6 6 14 14 14 14 14 14 14 26 26 26 26 38 38 38 38 38 38 38 38 38 50 50 50 86 86 86 110 110 170 194 302 434 434 770 770 770 770 434 302 302 194 194 170 170 110 110 86 86 50 38 14 14

################################################################################

# Grid for Z=54 and Zeff=26
# Cost:             -5.26053
# Number of points: 9630
# Number of shells: 71

54 26
   PowerRTransform 7.905521967940802e-09 19.09928852814914 71
   6 6 6 6 6 6 6 6 6 6 6 6 6 6 6 6 6 6 6 14 14 14 14 14 14 14 26 26 26 38 38 38 38 38 38 38 38 38 50 50 50 86 110 170 170 194 302 434 590 770 770 770 770 770 590 434 302 302 194 170 170 170 110 110 110 86 86 50 38 14 6

################################################################################

# Grid for Z=55 and Zeff=9
# Cost:             -5.25710
# Number of points: 16798
# Number of shells: 71

55 9
   PowerRTransform 0.001011462489909521 24.757734721809108 71
   6 6 6 6 6 6 6 6 14 14 14 14 14 26 26 26 26 38 38 38 38 50 50 50 50 86 110 110 170 170 194 302 302 302 434 590 770 974 1202 1730 1730 974 974 770 590 434 302 302 302 302 302 194 194 194 170 170 110 110 110 110 86 50 50 50 50 50 38 26 14 14 6

################################################################################

# Grid for Z=56 and Zeff=10
# Cost:             -5.22876
# Number of points: 14698
# Number of shells: 71

56 10
   PowerRTransform 0.00038862580532087804 22.298081065756328 71
   6 6 6 6 6 6 6 6 6 6 6 6 14 14 14 14 26 26 26 26 38 38 38 38 50 50 50 50 86 86 110 110 170 170 194 302 302 302 590 770 1202 1454 1730 1454 974 590 434 434 302 302 194 194 194 170 170 170 110 110 110 110 110 86 50 50 50 50 38 38 14 14 14

################################################################################

# Grid for Z=57 and Zeff=11
# Cost:             -5.44921
# Number of points: 13250
# Number of shells: 71

57 11
   PowerRTransform 1.760652355460472e-05 21.958172637007983 71
   6 6 6 6 6 6 6 6 6 6 6 6 6 6 14 14 14 14 14 14 26 38 38 38 38 38 50 50 74 74 74 86 86 110 110 110 170 170 194 194 194 434 590 590 974 974 1202 1454 974 770 434 434 434 302 266 194 194 170 110 110 110 110 86 50 50 50 14 14 14 6 6

################################################################################

# Grid for Z=72 and Zeff=12
# Cost:             -5.44011
# Number of points: 15054
# Number of shells: 59

72 12
   PowerRTransform 0.0008857694481690485 17.06721283130558 59