# -*- coding: utf-8 -*-
# HORTON: Helpful Open-source Research TOol for N-fermion systems.
# Copyright (C) 2011-2019 The HORTON Development Team
#
# This file is part of HORTON.
#
# HORTON is free software; you can redistribute it and/or
# modify it under the terms of the GNU General Public License
# as published by the Free Software Foundation; either version 3
# of the License, or (at your option) any later version.
#
# HORTON is distributed in the hope that it will be useful,
# but WITHOUT ANY WARRANTY; without even the implied warranty of
# MERCHANTABILITY or FITNESS FOR A PARTICULAR PURPOSE.  See the
# GNU General Public License for more details.
#
# You should have received a copy of the GNU General Public License
# along with this program; if not, see <http://www.gnu.org/licenses/>
#
# --


## These grids were created by Toon Verstraelen in July 2013 in a second effort
## to generate tuned grids based on a series of diatomic benchmarks computed
## with the QZVP basis of Ahlrichs and coworkers. They are constructed to give
## on average 3 digits of precision for a variety of molecular integrals, using
## the Becke scheme with k=3.


# Cost threshold for grid selection:   -3.00000

# Grid for Z=1 and Zeff=1
# Cost:             -3.71313
# Number of points: 604
# Number of shells: 20

1 1
   PowerRTransform 7.0879993828935345e-06 16.05937640019924 20
   6 6 6 6 6 6 6 14 14 26 38 50 86 86 86 86 50 14 6 6

################################################################################

# Grid for Z=2 and Zeff=2
# Cost:             -3.56339
# Number of points: 680
# Number of shells: 20

2 2
   PowerRTransform 3.275258443130877e-06 12.620467922823137 20
   6 6 6 6 6 6 6 14 14 26 38 50 86 86 86 86 74 50 14 14

################################################################################

# Grid for Z=3 and Zeff=3
# Cost:             -3.24646
# Number of points: 1416
# Number of shells: 34

3 3
   PowerRTransform 2.921331405492397e-07 13.737227579370492 34
   6 6 6 6 6 6 6 6 6 6 6 6 6 6 6 6 14 14 14 26 38 50 50 170 194 194 194 110 86 50 50 38 14 14

################################################################################

# Grid for Z=4 and Zeff=4
# Cost:             -3.32694
# Number of points: 1140
# Number of shells: 28

4 4
   PowerRTransform 3.5287669585713423e-07 10.986189714625459 28
   6 6 6 6 6 6 6 6 6 6 6 6 6 14 14 26 38 50 86 170 194 110 110 86 50 50 50 14

################################################################################

# Grid for Z=5 and Zeff=5
# Cost:             -3.57864
# Number of points: 1136
# Number of shells: 28

5 5
   PowerRTransform 6.572309918626511e-07 15.480030678060736 28
   6 6 6 6 6 6 6 6 6 6 14 14 14 14 26 38 50 50 170 194 170 110 86 50 50 14 6 6

################################################################################

# Grid for Z=6 and Zeff=6
# Cost:             -3.63067
# Number of points: 1536
# Number of shells: 34

6 6
   PowerRTransform 3.4037268167018677e-07 25.05552384468076 34
   6 6 6 6 6 6 6 6 6 14 14 14 14 14 26 38 38 50 50 86 110 194 110 110 86 86 86 86 86 86 50 14 14 6

################################################################################

# Grid for Z=7 and Zeff=7
# Cost:             -3.38266
# Number of points: 1372
# Number of shells: 34

7 7
   PowerRTransform 2.93751062697579e-07 21.533027687641482 34
   6 6 6 6 6 6 6 6 6 6 14 14 14 14 26 38 38 50 50 50 110 170 194 110 110 86 86 50 50 14 6 6 6 6

################################################################################

# Grid for Z=8 and Zeff=8
# Cost:             -3.40972
# Number of points: 1612
# Number of shells: 34

8 8
   PowerRTransform 1.9976337958009963e-07 11.693046761659701 34
   6 6 6 6 6 6 6 6 6 6 6 14 14 14 14 14 26 38 38 50 86 170 194 194 170 110 86 86 50 50 50 50 14 14

################################################################################

# Grid for Z=9 and Zeff=9
# Cost:             -3.23772
# Number of points: 1212
# Number of shells: 28

9 9
   PowerRTransform 3.337594418302332e-07 9.468742999188589 28
   6 6 6 6 6 6 6 6 6 6 14 14 14 14 26 38 50 50 110 194 170 110 110 86 50 50 38 14

################################################################################

# Grid for Z=10 and Zeff=10
# Cost:             -3.35909
# Number of points: 1840
# Number of shells: 34

10 10
   PowerRTransform 1.548486190070676e-07 12.551593283012727 34
   6 6 6 6 6 6 6 6 6 6 6 14 14 14 14 14 26 38 38 50 110 170 194 194 170 170 110 110 86 86 50 50 38 14

################################################################################

# Grid for Z=11 and Zeff=11
# Cost:             -3.37502
# Number of points: 2066
# Number of shells: 41

11 11
   PowerRTransform 1.0698203377023628e-07 18.47405277055512 41
   6 6 6 6 6 6 6 6 6 6 6 6 6 6 6 14 14 14 14 14 14 14 14 26 38 38 50 50 110 194 302 434 194 110 110 86 50 38 14 14 6

################################################################################

# Grid for Z=12 and Zeff=12
# Cost:             -3.33868
# Number of points: 2346
# Number of shells: 41

12 12
   PowerRTransform 8.520448062932258e-08 13.839201655848028 41
   6 6 6 6 6 6 6 6 6 6 6 6 6 6 14 14 14 14 14 14 14 14 14 26 38 38 50 50 170 194 194 194 302 302 170 110 110 86 50 38 14

################################################################################

# Grid for Z=13 and Zeff=13
# Cost:             -3.39772
# Number of points: 1982
# Number of shells: 41

13 13
   PowerRTransform 1.0968511991499113e-07 19.3444523518083 41
   6 6 6 6 6 6 6 6 6 6 6 6 14 14 14 14 14 14 14 14 26 26 26 38 38 50 86 110 194 302 302 170 110 86 86 50 50 14 14 14 6

################################################################################

# Grid for Z=14 and Zeff=14
# Cost:             -3.49907
# Number of points: 1874
# Number of shells: 41

14 14
   PowerRTransform 9.947185407715921e-08 17.538520220555263 41
   6 6 6 6 6 6 6 6 6 6 6 6 14 14 14 14 14 14 14 14 26 26 38 38 38 50 50 110 194 302 194 170 110 86 86 50 50 38 14 14 6

################################################################################

# Grid for Z=15 and Zeff=15
# Cost:             -3.14592
# Number of points: 3086
# Number of shells: 49

15 15
   PowerRTransform 3.3945325453782706e-08 13.310570246961491 49
   6 6 6 6 6 6 6 6 6 6 6 6 6 6 6 14 14 14 14 14 14 14 14 14 14 26 26 38 38 50 50 110 110 194 302 434 302 302 194 170 110 110 86 50 50 38 38 14 14

################################################################################

# Grid for Z=16 and Zeff=16
# Cost:             -3.02651
# Number of points: 2402
# Number of shells: 41

16 16
   PowerRTransform 8.103543926879926e-08 14.817052279107777 41
   6 6 6 6 6 6 6 6 6 6 6 6 14 14 14 14 14 14 14 14 14 26 38 38 50 50 86 194 302 302 302 302 170 110 86 50 50 14 14 14 6

################################################################################

# Grid for Z=17 and Zeff=17
# Cost:             -3.73501
# Number of points: 2254
# Number of shells: 41

17 17
   PowerRTransform 7.873629822711058e-08 13.861300332040935 41
   6 6 6 6 6 6 6 6 6 6 6 14 14 14 14 14 14 14 14 14 26 26 38 38 50 50 50 110 110 194 302 302 194 170 110 86 86 50 50 14 6

################################################################################

# Grid for Z=18 and Zeff=18
# Cost:             -3.14696
# Number of points: 2814
# Number of shells: 49

18 18
   PowerRTransform 5.0807737431640466e-08 22.66135209490643 49
   6 6 6 6 6 6 6 6 6 6 6 6 6 14 14 14 14 14 14 14 14 26 26 26 38 38 50 50 110 170 194 302 302 302 194 170 110 110 110 86 50 50 50 14 14 14 6 6 6

################################################################################

# Grid for Z=19 and Zeff=19
# Cost:             -3.12517
# Number of points: 2862
# Number of shells: 49

19 19
   PowerRTransform 4.64306391141893e-08 19.601548129651217 49
   6 6 6 6 6 6 6 6 6 6 6 6 6 6 6 6 6 14 14 14 14 14 14 14 14 14 26 26 26 26 38 50 50 86 110 170 302 434 590 194 170 110 86 50 50 14 14 6 6

################################################################################

# Grid for Z=20 and Zeff=20
# Cost:             -3.59306
# Number of points: 3210
# Number of shells: 49

20 20
   PowerRTransform 4.226422410692097e-08 18.138475282573246 49
   6 6 6 6 6 6 6 6 6 6 6 6 6 6 6 14 14 14 14 14 14 14 26 26 26 26 26 26 38 38 50 50 86 110 170 194 302 434 590 194 170 110 110 86 50 50 14 14 6

################################################################################

# Grid for Z=21 and Zeff=21
# Cost:             -3.52305
# Number of points: 3142
# Number of shells: 49

21 21
   PowerRTransform 3.901316712288189e-08 16.57340105134104 49
   6 6 6 6 6 6 6 6 6 6 6 6 6 6 14 14 14 14 26 26 26 26 26 26 38 38 38 38 38 38 50 50 50 50 110 170 302 302 434 302 194 170 110 86 86 50 50 38 14

################################################################################

# Grid for Z=22 and Zeff=22
# Cost:             -3.07640
# Number of points: 2510
# Number of shells: 41

22 22
   PowerRTransform 8.469928478014979e-08 14.018676846257888 41
   6 6 6 6 6 6 6 6 6 6 6 6 14 14 14 26 26 26 26 26 38 38 38 38 38 38 50 50 50 110 170 302 434 302 170 110 110 86 50 38 6

################################################################################

# Grid for Z=23 and Zeff=23
# Cost:             -3.97761
# Number of points: 3118
# Number of shells: 49

23 23
   PowerRTransform 5.2950712424631576e-08 22.816240334333852 49
   6 6 6 6 6 6 6 6 6 6 6 6 14 14 14 14 26 26 26 26 38 38 38 50 50 50 50 50 50 50 86 86 110 194 302 434 434 194 170 110 110 50 50 38 14 14 14 6 6

################################################################################

# Grid for Z=24 and Zeff=24
# Cost:             -4.04115
# Number of points: 3698
# Number of shells: 49

24 24
   PowerRTransform 3.4557432728452313e-08 15.091155654635827 49
   6 6 6 6 6 6 6 6 6 6 6 6 14 14 14 14 26 26 26 26 38 38 38 38 74 74 74 74 74 74 74 74 74 110 110 194 302 434 434 302 194 110 110 110 86 50 50 38 14

################################################################################

# Grid for Z=25 and Zeff=25
# Cost:             -4.05622
# Number of points: 3878
# Number of shells: 49

25 25
   PowerRTransform 3.178147419113487e-08 13.585513889462455 49
   6 6 6 6 6 6 6 6 6 6 6 6 14 14 14 14 14 26 26 26 26 38 38 38 50 50 50 50 50 50 50 50 110 110 194 302 302 302 434 434 302 170 110 110 86 50 50 38 14

################################################################################

# Grid for Z=26 and Zeff=26
# Cost:             -3.70833
# Number of points: 3386
# Number of shells: 49

26 26
   PowerRTransform 3.172524404932185e-08 14.178273830970099 49
   6 6 6 6 6 6 6 6 6 6 6 6 14 14 14 14 26 26 26 26 38 38 38 38 74 74 74 74 74 74 74 50 74 86 110 194 194 302 434 302 170 110 110 110 86 50 50 38 14

################################################################################

# Grid for Z=27 and Zeff=27
# Cost:             -3.93907
# Number of points: 3818
# Number of shells: 49

27 27
   PowerRTransform 4.509526140861881e-08 19.403573738951422 49
   6 6 6 6 6 6 6 6 6 6 6 14 14 14 14 26 26 26 26 38 38 38 50 50 50 50 50 50 50 50 86 170 194 302 434 434 434 302 194 110 110 86 50 50 50 38 14 14 6

################################################################################

# Grid for Z=28 and Zeff=28
# Cost:             -3.64809
# Number of points: 3942
# Number of shells: 49

28 28
   PowerRTransform 2.9356190607696406e-08 13.116858353837197 49
   6 6 6 6 6 6 6 6 6 6 6 6 14 14 14 14 14 26 26 26 38 38 38 38 50 50 50 50 50 50 50 50 110 170 194 302 434 434 302 434 194 170 110 110 86 50 50 14 6

################################################################################

# Grid for Z=29 and Zeff=29
# Cost:             -3.37388
# Number of points: 2778
# Number of shells: 49

29 29
   PowerRTransform 4.2505981527811774e-08 18.586632473012926 49
   6 6 6 6 6 6 6 6 6 6 6 6 6 14 14 14 14 14 26 26 26 26 26 26 26 26 38 38 38 50 50 50 110 170 194 302 302 302 170 170 110 110 86 50 50 14 6 6 6

################################################################################

# Grid for Z=30 and Zeff=30
# Cost:             -3.57652
# Number of points: 4050
# Number of shells: 59

30 30
   PowerRTransform 1.4408109611213607e-08 16.259347890732087 59
   6 6 6 6 6 6 6 6 6 6 6 6 6 6 6 14 14 14 14 14 14 14 26 26 26 26 26 26 26 26 38 38 38 38 38 50 86 110 170 194 302 302 302 302 302 302 194 170 110 110 110 86 86 50 50 50 14 6 6

################################################################################

# Grid for Z=31 and Zeff=31
# Cost:             -3.74376
# Number of points: 4262
# Number of shells: 59

31 31
   PowerRTransform 1.824377514393831e-08 20.367578461056908 59
   6 6 6 6 6 6 6 6 6 6 6 6 6 6 6 14 14 14 14 14 14 14 26 26 26 26 26 26 26 26 38 38 38 50 50 86 110 194 302 434 434 302 434 302 194 170 110 110 86 86 86 50 50 50 14 14 14 14 6

################################################################################

# Grid for Z=32 and Zeff=32
# Cost:             -3.45924
# Number of points: 3798
# Number of shells: 59

32 32
   PowerRTransform 1.7471371935813538e-08 19.497605860791076 59
   6 6 6 6 6 6 6 6 6 6 6 6 6 6 14 14 14 14 14 14 14 14 26 26 26 26 26 26 26 26 38 38 38 38 50 50 50 86 110 170 194 302 434 434 302 194 170 110 110 86 86 86 50 50 50 26 14 14 14

################################################################################

# Grid for Z=33 and Zeff=33
# Cost:             -3.20398
# Number of points: 3270
# Number of shells: 49

33 33
   PowerRTransform 3.337060066709977e-08 14.539926600856434 49
   6 6 6 6 6 6 6 6 6 6 6 6 6 14 14 14 14 14 14 14 26 26 26 26 26 26 26 38 38 50 50 50 170 110 302 194 302 434 434 194 170 110 86 50 50 38 14 14 14

################################################################################

# Grid for Z=34 and Zeff=34
# Cost:             -3.26596
# Number of points: 1586
# Number of shells: 41

34 34
   PowerRTransform 7.26261592690295e-08 9.150346251821444 41
   6 6 6 6 6 6 6 6 6 6 6 6 6 14 14 14 14 14 14 14 14 14 14 14 26 26 26 38 38 50 50 110 110 194 194 170 110 86 50 50 26

################################################################################

# Grid for Z=35 and Zeff=35
# Cost:             -3.10053
# Number of points: 3682
# Number of shells: 49

35 35
   PowerRTransform 2.9391357996110716e-08 12.79869606984896 49
   6 6 6 6 6 6 6 6 6 6 6 6 6 14 14 14 14 14 14 14 26 26 26 26 26 26 26 38 38 50 50 50 110 170 194 302 302 302 434 434 194 170 110 110 86 86 50 38 6

################################################################################

# Grid for Z=36 and Zeff=36
# Cost:             -3.60703
# Number of points: 6550
# Number of shells: 71

36 36
   PowerRTransform 7.666322094273355e-09 22.032520696360354 71
   6 6 6 6 6 6 6 6 6 6 6 6 6 6 6 6 14 14 14 14 14 14 14 26 26 26 26 26 26 26 26 26 26 38 38 38 38 38 50 50 74 86 110 170 194 194 302 434 590 590 590 434 302 302 194 170 170 170 110 110 110 86 86 50 50 50 38 14 14 6 6

################################################################################

# Grid for Z=37 and Zeff=9
# Cost:             -3.18646
# Number of points: 2768
# Number of shells: 34

37 9
   PowerRTransform 0.00160760467395482 17.986218694918996 34
   6 6 6 6 6 6 6 6 14 14 14 26 26 38 38 50 50 110 170 194 302 434 434 194 170 110 86 86 50 38 38 14 14 6

################################################################################

# Grid for Z=38 and Zeff=10
# Cost:             -3.15559
# Number of points: 2360
# Number of shells: 28

38 10
   PowerRTransform 0.004786426963376669 15.133898043459926 28
   6 6 6 6 6 14 14 14 26 26 38 38 50 50 110 194 302 434 434 194 110 86 50 50 38 38 14 6

################################################################################

# Grid for Z=39 and Zeff=11
# Cost:             -3.37272
# Number of points: 2844
# Number of shells: 28

39 11
   PowerRTransform 0.00929980337824488 15.124427694437113 28
   6 6 6 14 14 26 38 38 38 38 50 50 110 194 302 302 434 434 194 170 110 86 50 50 38 26 14 6

################################################################################

# Grid for Z=40 and Zeff=12
# Cost:             -3.09070
# Number of points: 1956
# Number of shells: 24

40 12
   PowerRTransform 0.004400924774659476 13.776967922828712 24
   6 6 6 14 14 38 38 38 50 74 74 86 110 110 302 302 302 110 86 50 50 50 26 14

################################################################################

# Grid for Z=41 and Zeff=13
# Cost:             -3.16548
# Number of points: 1964
# Number of shells: 24

41 13
   PowerRTransform 0.001641035519006941 13.504086094225801 24
   6 6 6 6 14 14 38 38 38 74 74 74 110 170 302 194 302 170 110 86 50 50 26 6

################################################################################

# Grid for Z=42 and Zeff=14
# Cost:             -3.21227
# Number of points: 1788
# Number of shells: 24

42 14
   PowerRTransform 0.0016839411670763233 13.225708826679215 24
   6 6 6 14 14 38 38 50 74 74 86 86 86 110 170 194 302 110 110 86 50 38 26 14

################################################################################

# Grid for Z=43 and Zeff=15
# Cost:             -3.33494
# Number of points: 1636
# Number of shells: 24

43 15
   PowerRTransform 0.0014558072456515318 13.352941073079165 24
   6 6 6 14 14 38 38 50 74 74 86 86 86 86 170 194 194 110 86 86 50 50 26 6

################################################################################

# Grid for Z=44 and Zeff=16
# Cost:             -3.30955
# Number of points: 1680
# Number of shells: 24

44 16
   PowerRTransform 0.0017131297886840624 11.475681514413719 24
   6 6 6 14 14 26 38 38 50 74 74 74 50 110 170 194 194 194 110 86 50 50 38 14

################################################################################

# Grid for Z=45 and Zeff=17
# Cost:             -3.50904
# Number of points: 2484
# Number of shells: 28

45 17
   PowerRTransform 0.0006896950049154862 13.389060584375494 28
   6 6 6 14 14 38 38 74 74 86 110 110 110 110 110 86 110 194 302 302 170 110 86 86 50 50 26 6

################################################################################

# Grid for Z=46 and Zeff=18
# Cost:             -3.22847
# Number of points: 2076
# Number of shells: 28

46 18
   PowerRTransform 0.003991636925215538 12.104493357511055 28
   6 6 6 14 14 38 38 38 38 38 38 50 50 110 194 194 302 194 194 110 110 86 50 50 50 38 14 6

################################################################################

# Grid for Z=47 and Zeff=19
# Cost:             -3.15512
# Number of points: 1680
# Number of shells: 28

47 19
   PowerRTransform 0.00015212477980265608 12.274944272382452 28
   6 6 6 6 6 6 14 14 14 14 26 26 26 38 50 50 110 194 194 194 302 110 110 50 50 38 14 6

################################################################################

# Grid for Z=48 and Zeff=20
# Cost:             -3.47961
# Number of points: 2596
# Number of shells: 34

48 20
   PowerRTransform 0.00010118310873400271 14.973913900589897 34
   6 6 6 6 6 6 6 14 14 14 14 26 26 26 26 38 50 50 110 170 302 302 302 302 194 110 110 110 86 50 50 38 14 6

################################################################################

# Grid for Z=49 and Zeff=21
# Cost:             -3.69294
# Number of points: 2284
# Number of shells: 34

49 21
   PowerRTransform 2.1772151792684543e-05 13.630632532666729 34
   6 6 6 6 6 6 6 6 14 14 14 14 26 26 26 26 38 38 50 50 110 170 194 194 302 302 194 110 110 86 50 50 14 14

################################################################################

# Grid for Z=50 and Zeff=22
# Cost:             -3.05938
# Number of points: 1352
# Number of shells: 28

50 22
   PowerRTransform 1.6990562937980815e-05 12.029850443684957 28
   6 6 6 6 6 6 6 6 14 14 14 14 26 26 26 26 38 50 50 110 194 302 170 86 50 50 38 6

################################################################################

# Grid for Z=51 and Zeff=23
# Cost:             -3.54921
# Number of points: 2388
# Number of shells: 34

51 23
   PowerRTransform 6.796072629260754e-06 11.75457845429149 34
   6 6 6 6 6 6 6 6 6 6 14 14 14 14 26 26 26 26 38 50 50 110 170 302 302 302 302 194 110 86 50 50 38 14

################################################################################

# Grid for Z=52 and Zeff=24
# Cost:             -3.24807
# Number of points: 2040
# Number of shells: 34

52 24
   PowerRTransform 1.3436947083362192e-06 12.990111017303228 34
   6 6 6 6 6 6 6 6 6 6 6 14 14 14 14 26 26 26 26 38 50 50 110 170 302 302 302 194 110 86 50 38 6 6

################################################################################

# Grid for Z=53 and Zeff=25
# Cost:             -3.42333
# Number of points: 2116
# Number of shells: 34

53 25
   PowerRTransform 1.4109015205247565e-06 10.355366146764073 34
   6 6 6 6 6 6 6 6 6 6 6 14 14 14 14 26 26 26 26 38 38 50 50 74 110 170 302 302 302 170 110 86 50 38

################################################################################

# Grid for Z=54 and Zeff=26
# Cost:             -3.07521
# Number of points: 2008
# Number of shells: 34

54 26
   PowerRTransform 1.6878775405825662e-06 12.554723566140746 34
   6 6 6 6 6 6 6 6 6 6 6 14 14 14 26 26 26 26 26 38 50 50 110 194 302 194 302 146 110 86 86 50 38 14

################################################################################

# Grid for Z=55 and Zeff=9
# Cost:             -3.14499
# Number of points: 2728
# Number of shells: 28

55 9
   PowerRTransform 0.013225486405842 18.43991671392975 28
   6 6 6 6 14 14 14 26 26 38 50 50 110 170 194 302 590 302 194 170 110 110 86 50 38 26 14 6

################################################################################

# Grid for Z=56 and Zeff=10
# Cost:             -3.62038
# Number of points: 4032
# Number of shells: 34

56 10
   PowerRTransform 0.012350773998211132 18.10368544212878 34
   6 6 6 6 6 6 14 26 26 38 38 50 50 50 110 170 194 302 590 770 590 194 170 110 110 86 86 50 50 50 38 14 14 6

################################################################################

# Grid for Z=57 and Zeff=11
# Cost:             -3.33341
# Number of points: 2372
# Number of shells: 28

57 11
   PowerRTransform 0.002670825386357506 15.86083436823077 28
   6 6 6 6 6 14 14 14 38 38 38 38 50 86 110 170 302 302 434 194 170 110 86 50 38 26 14 6

################################################################################

# Grid for Z=72 and Zeff=12
# Cost:             -3.63484
# Number of points: 3908
# Number of shells: 34

72 12
   PowerRTransform 0.0005969508240125979 13.988532882060111 34
   6 6 6 6 6 6 14 14 14 38 38 38 50 74 74 86 110 110 170 194 302 434 434 434 434 194 170 110 110 86 50 50 26 14

################################################################################

# Grid for Z=73 and Zeff=13
# Cost:             -3.59487
# Number of points: 2928
# Number of shells: 34

73 13
   PowerRTransform 0.00030285177704102476 15.806062601156285 34
   6 6 6 6 6 6 6 14 14 26 38 38 38 74 74 86 110 110 110 110 194 302 302 434 194 170 110 86 86 50 50 38 14 14

################################################################################

# Grid for Z=74 and Zeff=14
# Cost:             -3.06990
# Number of points: 2000
# Number of shells: 28

74 14
   PowerRTransform 0.0005199857700783556 12.467359164221246 28
   6 6 6 6 6 6 14 14 26 38 38 50 74 74 86 86 50 110 194 302 302 170 110 86 50 50 26 14

################################################################################

# Grid for Z=75 and Zeff=15
# Cost:             -3.86215
# Number of points: 3404
# Number of shells: 34

75 15
   PowerRTransform 0.0005774805775555001 13.756936304922869 34
   6 6 6 6 6 6 14 14 26 38 38 50 74 86 86 86 86 86 110 170 194 302 434 434 302 170 110 110 110 86 50 50 38 14

################################################################################

# Grid for Z=76 and Zeff=16
# Cost:             -3.06433
# Number of points: 1964
# Number of shells: 28

76 16
   PowerRTransform 0.0005488670227249789 11.866058682566441 28
   6 6 6 6 6 6 14 14 38 38 38 74 74 74 86 110 110 194 302 194 194 110 86 50 50 38 26 14

################################################################################

# Grid for Z=77 and Zeff=17
# Cost:             -3.50648
# Number of points: 3244
# Number of shells: 34

77 17
   PowerRTransform 0.0015165447332482222 14.342001657347486 34
   6 6 6 6 6 14 14 26 38 38 74 74 74 86 86 110 110 302 302 434 302 302 194 170 110 86 50 50 50 38 38 14 14 14

################################################################################

# Grid for Z=78 and Zeff=18
# Cost:             -3.15132
# Number of points: 1996
# Number of shells: 28

78 18
   PowerRTransform 0.0011253095953075427 12.492599746196849 28
   6 6 6 6 6 14 14 26 38 38 50 74 74 50 110 194 194 302 194 194 110 86 50 50 38 38 14 14

################################################################################

# Grid for Z=79 and Zeff=19
# Cost:             -3.36210
# Number of points: 2052
# Number of shells: 28

79 19
   PowerRTransform 0.0004653493337891063 11.599618965019479 28
   6 6 6 6 6 6 14 14 26 38 38 38 38 50 50 110 194 194 302 302 194 110 110 86 50 38 14 6

################################################################################

# Grid for Z=80 and Zeff=20
# Cost:             -3.30139
# Number of points: 1904
# Number of shells: 28

80 20
   PowerRTransform 0.0006157705673380261 13.531920256317914 28
   6 6 6 6 6 6 14 14 26 26 38 38 38 50 110 194 194 194 194 194 110 110 86 86 50 50 38 14

################################################################################

# Grid for Z=81 and Zeff=21
# Cost:             -3.58731
# Number of points: 2672
# Number of shells: 34

81 21
   PowerRTransform 0.00023408943945035055 16.445219987521853 34
   6 6 6 6 6 6 6 14 14 14 14 26 26 38 38 50 50 110 194 302 302 302 302 194 170 110 110 86 50 50 38 14 6 6

################################################################################

# Grid for Z=82 and Zeff=22
# Cost:             -3.62162
# Number of points: 2436
# Number of shells: 34

82 22
   PowerRTransform 5.041000540177768e-05 14.477763603501602 34
   6 6 6 6 6 6 6 6 6 14 14 14 14 26 26 38 38 50 50 110 110 302 302 302 302 194 110 110 86 50 50 50 14 6

################################################################################

# Grid for Z=83 and Zeff=23
# Cost:             -3.43475
# Number of points: 2540
# Number of shells: 34

83 23
   PowerRTransform 2.0323777410445665e-05 12.045736697072465 34
   6 6 6 6 6 6 6 6 6 6 6 14 14 14 26 26 26 26 38 50 86 110 194 302 434 302 302 170 110 86 50 50 38 6

################################################################################

# Grid for Z=84 and Zeff=24
# Cost:             -3.17689
# Number of points: 1308
# Number of shells: 28

84 24
   PowerRTransform 1.9999567372693505e-05 11.038691275749162 28
   6 6 6 6 6 6 6 6 6 6 14 14 26 26 26 38 38 50 86 110 194 194 194 110 50 38 26 14

################################################################################

# Grid for Z=85 and Zeff=25
# Cost:             -3.37762
# Number of points: 2188
# Number of shells: 34

85 25
   PowerRTransform 7.984127090162489e-06 12.871980265953145 34
   6 6 6 6 6 6 6 6 6 6 6 14 14 14 26 26 26 26 38 38 50 50 86 170 194 302 434 194 110 110 86 50 50 14

################################################################################

# Grid for Z=86 and Zeff=26
# Cost:             -3.07082
# Number of points: 1964
# Number of shells: 34

86 26
   PowerRTransform 1.8857629639268351e-06 13.687906160999097 34
   6 6 6 6 6 6 6 6 6 6 6 6 14 14 14 26 26 26 38 38 38 50 50 110 194 302 302 194 110 110 86 86 50 14

################################################################################
