# -*- coding: utf-8 -*-
# HORTON: Helpful Open-source Research TOol for N-fermion systems.
# Copyright (C) 2011-2019 The HORTON Development Team
#
# This file is part of HORTON.
#
# HORTON is free software; you can redistribute it and/or
# modify it under the terms of the GNU General Public License
# as published by the Free Software Foundation; either version 3
# of the License, or (at your option) any later version.
#
# HORTON is distributed in the hope that it will be useful,
# but WITHOUT ANY WARRANTY; without even the implied warranty of
# MERCHANTABILITY or FITNESS FOR A PARTICULAR PURPOSE.  See the
# GNU General Public License for more details.
#
# You should have received a copy of the GNU General Public License
# along with this program; if not, see <http://www.gnu.org/licenses/>
#
# --


## These grids were created by Toon Verstraelen in July 2013 in a second effort
## to generate tuned grids based on a series of diatomic benchmarks computed
## with the QZVP basis of Ahlrichs and coworkers. They are constructed to give
## on average 4 digits of precision for a variety of molecular integrals, using
## the Becke scheme with k=3.


# Cost threshold for grid selection:   -4.00000

# Grid for Z=1 and Zeff=1
# Cost:             -4.26603
# Number of points: 928
# Number of shells: 24

1 1
   PowerRTransform 3.69705074304963e-06 19.279558946793685 24
   6 6 6 6 6 6 6 6 14 14 26 38 50 86 110 110 110 110 86 50 50 14 6 6

################################################################################

# Grid for Z=2 and Zeff=2
# Cost:             -4.64964
# Number of points: 1428
# Number of shells: 28

2 2
   PowerRTransform 9.368745949879574e-07 18.09340833625585 28
   6 6 6 6 6 6 6 6 6 14 14 26 38 50 86 110 110 110 110 110 110 110 110 110 86 50 14 6

################################################################################

# Grid for Z=3 and Zeff=3
# Cost:             -4.23377
# Number of points: 3558
# Number of shells: 49

3 3
   PowerRTransform 4.200545891826591e-08 16.436888979848774 49
   6 6 6 6 6 6 6 6 6 6 6 6 6 6 6 6 6 6 6 6 6 14 14 14 14 26 26 38 50 50 86 110 170 302 434 434 302 434 194 170 110 110 86 86 50 50 38 14 6

################################################################################

# Grid for Z=4 and Zeff=4
# Cost:             -4.16290
# Number of points: 2370
# Number of shells: 41

4 4
   PowerRTransform 7.057247550294354e-08 15.290758484505991 41
   6 6 6 6 6 6 6 6 6 6 6 6 6 6 6 6 14 14 14 14 26 38 38 50 86 110 194 302 194 194 194 194 110 110 86 86 86 50 50 14 6

################################################################################

# Grid for Z=5 and Zeff=5
# Cost:             -4.35767
# Number of points: 2490
# Number of shells: 41

5 5
   PowerRTransform 1.0063137907996029e-07 15.229194208834778 41
   6 6 6 6 6 6 6 6 6 6 6 6 6 14 14 14 14 14 14 26 26 38 38 50 50 110 110 194 434 302 194 170 146 110 86 86 50 50 38 14 6

################################################################################

# Grid for Z=6 and Zeff=6
# Cost:             -4.79759
# Number of points: 2490
# Number of shells: 41

6 6
   PowerRTransform 1.3457673140534789e-07 22.920122695678042 41
   6 6 6 6 6 6 6 6 6 6 6 14 14 14 14 14 26 26 38 50 50 50 74 86 110 170 194 302 170 110 110 110 110 110 86 86 86 86 50 50 14

################################################################################

# Grid for Z=7 and Zeff=7
# Cost:             -4.60567
# Number of points: 2306
# Number of shells: 41

7 7
   PowerRTransform 8.607710327438183e-08 15.179766342389419 41
   6 6 6 6 6 6 6 6 6 6 6 14 14 14 14 14 14 26 26 38 50 50 50 50 74 86 110 194 302 194 194 170 110 110 110 86 50 50 14 6 6

################################################################################

# Grid for Z=8 and Zeff=8
# Cost:             -4.92589
# Number of points: 3754
# Number of shells: 49

8 8
   PowerRTransform 2.9538937388132172e-08 12.993575938370238 49
   6 6 6 6 6 6 6 6 6 6 6 6 6 6 14 14 14 14 14 14 14 26 26 38 38 50 50 86 86 170 194 434 434 302 302 194 194 110 110 110 110 86 86 86 86 86 50 14 14

################################################################################

# Grid for Z=9 and Zeff=9
# Cost:             -4.19539
# Number of points: 2918
# Number of shells: 41

9 9
   PowerRTransform 5.4154276358133635e-08 10.15446701299908 41
   6 6 6 6 6 6 6 6 6 6 6 6 6 14 14 14 14 14 14 26 26 38 50 50 86 110 194 302 302 302 194 170 170 170 110 110 86 86 86 50 38

################################################################################

# Grid for Z=10 and Zeff=10
# Cost:             -4.31331
# Number of points: 3414
# Number of shells: 49

10 10
   PowerRTransform 5.272583091121791e-08 21.09982574224192 49
   6 6 6 6 6 6 6 6 6 6 6 6 6 14 14 14 14 14 14 14 26 38 38 50 50 86 170 194 302 302 302 194 194 194 194 170 110 110 110 86 86 86 50 50 14 14 6 6 6

################################################################################

# Grid for Z=11 and Zeff=11
# Cost:             -4.06669
# Number of points: 4470
# Number of shells: 59

11 11
   PowerRTransform 1.8172051069942758e-08 19.21575608583233 59
   6 6 6 6 6 6 6 6 6 6 6 6 6 6 6 6 6 6 6 6 14 14 14 14 14 14 14 14 14 14 14 14 26 26 38 38 50 50 86 110 170 194 302 434 590 590 434 194 170 170 110 110 86 50 50 38 38 14 14

################################################################################

# Grid for Z=12 and Zeff=12
# Cost:             -4.31334
# Number of points: 5122
# Number of shells: 59

12 12
   PowerRTransform 1.4518549365369613e-08 15.359654512888396 59
   6 6 6 6 6 6 6 6 6 6 6 6 6 6 6 6 6 6 14 14 14 14 14 14 14 14 14 14 14 14 14 26 26 38 38 50 50 86 86 170 194 302 302 302 434 434 590 434 302 194 170 110 110 110 86 86 50 38 14

################################################################################

# Grid for Z=13 and Zeff=13
# Cost:             -5.00667
# Number of points: 6370
# Number of shells: 71

13 13
   PowerRTransform 7.58358121259898e-09 21.572146722677854 71
   6 6 6 6 6 6 6 6 6 6 6 6 6 6 6 6 6 6 14 14 14 14 14 14 14 14 14 14 14 14 14 26 26 26 38 38 38 38 38 50 50 50 86 86 110 170 194 302 302 434 434 770 590 434 302 194 170 170 110 110 110 110 110 86 86 50 50 50 14 14 14

################################################################################

# Grid for Z=14 and Zeff=14
# Cost:             -4.21395
# Number of points: 2642
# Number of shells: 49

14 14
   PowerRTransform 4.900520573202732e-08 21.193035144678355 49
   6 6 6 6 6 6 6 6 6 6 6 6 6 14 14 14 14 14 14 14 14 14 26 26 26 38 38 38 50 50 86 110 194 194 434 302 170 110 110 86 86 86 50 50 38 14 14 6 6

################################################################################

# Grid for Z=15 and Zeff=15
# Cost:             -4.66126
# Number of points: 4614
# Number of shells: 59

15 15
   PowerRTransform 1.2505555751286374e-08 13.86623996852152 59
   6 6 6 6 6 6 6 6 6 6 6 6 6 6 6 6 6 14 14 14 14 14 14 14 14 14 14 14 14 26 26 38 38 50 50 50 86 110 170 194 194 434 434 434 434 302 302 194 170 110 110 86 86 50 50 50 38 14 14

################################################################################

# Grid for Z=16 and Zeff=16
# Cost:             -4.65593
# Number of points: 8498
# Number of shells: 71

16 16
   PowerRTransform 7.2396978282059335e-09 21.007760902379083 71
   6 6 6 6 6 6 6 6 6 6 6 6 6 6 6 6 6 14 14 14 14 14 14 14 14 14 14 14 14 26 26 26 26 38 38 38 50 50 50 86 110 110 146 194 302 434 770 974 770 590 770 590 434 302 194 194 170 110 110 110 86 86 50 50 50 14 14 14 14 6 6

################################################################################

# Grid for Z=17 and Zeff=17
# Cost:             -5.33519
# Number of points: 6770
# Number of shells: 71

17 17
   PowerRTransform 6.578265835890989e-09 18.74786834668225 71
   6 6 6 6 6 6 6 6 6 6 6 6 6 6 6 6 14 14 14 14 14 14 14 14 14 14 14 14 14 26 26 26 26 38 38 38 38 50 50 50 50 74 86 110 110 170 194 302 302 434 590 770 590 434 302 302 194 170 170 110 110 110 86 86 50 50 50 38 14 14 14

################################################################################

# Grid for Z=18 and Zeff=18
# Cost:             -4.16684
# Number of points: 4802
# Number of shells: 59

18 18
   PowerRTransform 1.578711087048131e-08 17.698827008360727 59
   6 6 6 6 6 6 6 6 6 6 6 6 6 6 6 6 14 14 14 14 14 14 14 14 14 26 26 26 26 38 38 38 50 50 86 110 170 194 194 434 434 434 434 302 302 194 170 170 110 110 86 86 50 50 50 50 14 14 14

################################################################################

# Grid for Z=19 and Zeff=19
# Cost:             -4.59092
# Number of points: 9710
# Number of shells: 85

19 19
   PowerRTransform 2.8772955756794633e-09 20.98574152765721 85
   6 6 6 6 6 6 6 6 6 6 6 6 6 6 6 6 6 6 6 6 6 6 6 6 6 14 14 14 14 14 14 14 14 14 14 14 14 14 14 26 26 26 26 26 26 26 26 38 38 38 38 50 50 50 86 86 110 110 170 194 194 302 434 590 770 974 1202 770 590 434 302 302 194 194 170 170 110 110 86 86 50 38 14 6 6

################################################################################

# Grid for Z=20 and Zeff=20
# Cost:             -4.27263
# Number of points: 6874
# Number of shells: 71

20 20
   PowerRTransform 6.939308343339075e-09 19.4181989879003 71
   6 6 6 6 6 6 6 6 6 6 6 6 6 6 6 6 6 6 6 6 14 14 14 14 14 14 14 14 14 26 26 26 26 26 26 26 26 38 38 38 38 50 50 50 86 86 110 170 194 302 350 302 434 590 770 770 434 302 194 194 170 110 110 110 86 86 50 50 38 14 6

################################################################################

# Grid for Z=21 and Zeff=21
# Cost:             -4.04991
# Number of points: 4814
# Number of shells: 59

21 21
   PowerRTransform 1.5390048123719167e-08 17.35747252821403 59
   6 6 6 6 6 6 6 6 6 6 6 6 6 6 6 6 14 14 14 14 14 26 26 26 26 26 26 38 38 38 38 38 38 38 38 50 50 50 50 86 110 170 194 302 434 590 590 302 302 194 170 110 110 86 86 50 50 38 14

################################################################################

# Grid for Z=22 and Zeff=22
# Cost:             -4.66600
# Number of points: 7786
# Number of shells: 71

22 22
   PowerRTransform 6.203949505272387e-09 17.33318155671458 71
   6 6 6 6 6 6 6 6 6 6 6 6 6 6 6 6 6 14 14 14 14 14 14 26 26 26 26 26 26 38 38 38 38 38 50 74 74 74 74 74 74 74 74 74 86 86 110 110 170 170 194 302 434 590 770 770 770 434 302 194 194 170 170 110 110 86 86 50 50 14 6

################################################################################

# Grid for Z=23 and Zeff=23
# Cost:             -4.27397
# Number of points: 4798
# Number of shells: 59

23 23
   PowerRTransform 1.8830606377521663e-08 21.286756705245622 59
   6 6 6 6 6 6 6 6 6 6 6 6 6 6 14 14 14 14 14 26 26 26 26 38 38 38 38 50 74 74 74 74 74 74 74 74 86 86 110 170 194 302 434 434 590 302 194 170 170 110 110 86 50 50 50 14 14 14 6

################################################################################

# Grid for Z=24 and Zeff=24
# Cost:             -4.04115
# Number of points: 3698
# Number of shells: 49

24 24
   PowerRTransform 3.4557432728452313e-08 15.091155654635827 49
   6 6 6 6 6 6 6 6 6 6 6 6 14 14 14 14 26 26 26 26 38 38 38 38 74 74 74 74 74 74 74 74 74 110 110 194 302 434 434 302 194 110 110 110 86 50 50 38 14

################################################################################

# Grid for Z=25 and Zeff=25
# Cost:             -4.05622
# Number of points: 3878
# Number of shells: 49

25 25
   PowerRTransform 3.178147419113487e-08 13.585513889462455 49
   6 6 6 6 6 6 6 6 6 6 6 6 14 14 14 14 14 26 26 26 26 38 38 38 50 50 50 50 50 50 50 50 110 110 194 302 302 302 434 434 302 170 110 110 86 50 50 38 14

################################################################################

# Grid for Z=26 and Zeff=26
# Cost:             -4.52243
# Number of points: 5194
# Number of shells: 59

26 26
   PowerRTransform 1.6702646098256547e-08 18.41241287549524 59
   6 6 6 6 6 6 6 6 6 6 6 6 6 14 14 14 14 14 26 26 26 26 38 38 38 38 38 74 74 74 74 74 74 74 74 74 86 86 110 170 194 302 434 434 590 434 302 170 170 110 110 110 86 74 50 38 14 6 6

################################################################################

# Grid for Z=27 and Zeff=27
# Cost:             -4.31787
# Number of points: 4634
# Number of shells: 59

27 27
   PowerRTransform 2.1825902835410595e-08 24.30392930364369 59
   6 6 6 6 6 6 6 6 6 6 6 6 6 14 14 14 14 26 26 26 26 26 38 38 38 38 74 74 74 50 50 50 50 50 74 110 194 194 302 302 434 434 434 302 194 170 110 110 86 86 50 50 38 26 14 14 6 6 6

################################################################################

# Grid for Z=28 and Zeff=28
# Cost:             -4.21421
# Number of points: 5670
# Number of shells: 59

28 28
   PowerRTransform 1.1481539977678121e-08 13.089552876798663 59
   6 6 6 6 6 6 6 6 6 6 6 6 6 6 14 14 14 14 14 14 26 26 26 26 38 38 38 38 50 50 50 50 50 50 50 50 50 86 110 110 170 302 302 590 590 434 434 434 302 194 170 110 110 110 86 50 50 38 14

################################################################################

# Grid for Z=29 and Zeff=29
# Cost:             -4.56786
# Number of points: 10278
# Number of shells: 85

29 29
   PowerRTransform 2.8225484278487028e-09 20.42209534838274 85
   6 6 6 6 6 6 6 6 6 6 6 6 6 6 6 6 6 6 6 14 14 14 14 14 14 14 14 26 26 26 26 26 26 26 26 26 26 26 38 38 38 38 38 38 38 38 50 50 50 50 74 86 110 110 170 170 194 302 302 434 590 974 974 974 770 434 434 302 302 194 194 170 170 170 110 110 110 86 86 50 50 38 6 6 6

################################################################################

# Grid for Z=30 and Zeff=30
# Cost:             -4.80747
# Number of points: 10798
# Number of shells: 85

30 30
   PowerRTransform 4.323297053318154e-09 31.080053716619787 85
   6 6 6 6 6 6 6 6 6 6 6 6 6 6 6 6 6 14 14 14 14 14 14 14 26 26 26 26 26 26 26 26 26 38 38 38 38 38 38 38 38 50 50 50 86 110 110 170 194 302 302 434 590 974 974 770 770 770 770 434 302 302 194 194 170 170 110 110 110 110 86 86 50 50 38 14 6 6 6 6 6 6 6 6 6

################################################################################

# Grid for Z=31 and Zeff=31
# Cost:             -4.89365
# Number of points: 10422
# Number of shells: 85

31 31
   PowerRTransform 3.1107434859757973e-09 22.32717822677373 85
   6 6 6 6 6 6 6 6 6 6 6 6 6 6 6 6 6 6 6 14 14 14 14 14 14 14 14 14 26 26 26 26 26 26 26 26 26 26 26 38 38 38 38 38 38 50 50 86 86 110 110 194 194 302 434 434 590 974 770 590 590 590 770 434 302 194 194 170 170 170 110 110 110 110 110 110 86 86 86 50 50 50 14 14 14

################################################################################

# Grid for Z=32 and Zeff=32
# Cost:             -4.13017
# Number of points: 8138
# Number of shells: 85

32 32
   PowerRTransform 2.9951878017544385e-09 21.563985131398987 85
   6 6 6 6 6 6 6 6 6 6 6 6 6 6 6 6 6 6 14 14 14 14 14 14 14 14 14 14 14 26 26 26 26 26 26 26 26 26 26 38 38 38 38 38 38 38 50 50 50 50 86 86 110 110 170 194 194 302 434 434 770 770 770 434 302 302 194 194 170 170 110 110 110 86 86 86 86 86 50 50 38 14 14 14 14

################################################################################

# Grid for Z=33 and Zeff=33
# Cost:             -4.42793
# Number of points: 10230
# Number of shells: 85

33 33
   PowerRTransform 2.8097157724390683e-09 20.227013987189178 85
   6 6 6 6 6 6 6 6 6 6 6 6 6 6 6 6 6 6 14 14 14 14 14 14 14 14 14 14 26 26 26 26 26 26 26 26 26 26 26 38 38 38 38 38 38 50 50 50 86 110 110 170 194 302 302 302 434 434 302 434 770 770 974 770 590 434 302 194 194 170 170 110 110 110 110 86 50 50 50 38 38 14 14 14 6

################################################################################

# Grid for Z=34 and Zeff=34
# Cost:             -4.24812
# Number of points: 3106
# Number of shells: 49

34 34
   PowerRTransform 1.7289465598427543e-08 11.367868199294005 49
   6 6 6 6 6 6 6 6 6 6 6 6 6 6 14 14 14 14 14 14 14 14 26 26 26 26 26 26 38 38 38 38 50 50 50 110 170 194 302 434 434 194 170 146 110 86 50 38 14

################################################################################

# Grid for Z=35 and Zeff=35
# Cost:             -5.19358
# Number of points: 7506
# Number of shells: 85

35 35
   PowerRTransform 4.3301047214875017e-14 16.309446059148527 85
   6 6 6 6 6 6 6 6 6 6 6 6 6 6 6 6 6 6 6 6 6 6 6 6 6 6 6 6 6 6 6 14 14 14 14 14 14 14 14 14 14 26 26 26 26 26 26 26 26 26 26 26 38 38 38 38 38 50 50 86 86 110 170 194 302 302 434 434 434 590 770 770 434 302 194 194 170 170 110 110 86 50 50 38 14

################################################################################

# Grid for Z=36 and Zeff=36
# Cost:             -4.20575
# Number of points: 9978
# Number of shells: 85

36 36
   PowerRTransform 3.024804857439196e-09 21.74890973154535 85
   6 6 6 6 6 6 6 6 6 6 6 6 6 6 6 6 6 6 14 14 14 14 14 14 14 14 14 26 26 26 26 26 26 26 26 26 26 26 38 38 38 38 38 38 50 50 50 74 86 110 110 170 194 194 266 302 434 590 770 770 770 770 590 434 302 302 194 194 170 170 170 170 110 110 86 86 86 86 50 50 38 38 14 14 6

################################################################################

# Grid for Z=37 and Zeff=9
# Cost:             -4.24230
# Number of points: 7662
# Number of shells: 59

37 9
   PowerRTransform 8.841007842911362e-05 21.37271890000193 59
   6 6 6 6 6 6 6 6 6 6 6 6 6 6 14 14 14 14 14 26 26 26 26 38 38 38 50 50 50 86 110 170 170 194 302 434 590 770 974 974 434 302 302 194 170 170 170 110 110 86 86 50 50 38 38 14 14 14 14

################################################################################

# Grid for Z=38 and Zeff=10
# Cost:             -4.29074
# Number of points: 5298
# Number of shells: 41

38 10
   PowerRTransform 0.0060453631723816886 17.87563175428666 41
   6 6 6 6 14 14 14 14 26 26 26 38 38 50 50 50 110 110 170 194 302 434 590 770 590 302 194 194 170 170 110 110 86 86 50 50 50 38 14 14 6

################################################################################

# Grid for Z=39 and Zeff=11
# Cost:             -4.35720
# Number of points: 5970
# Number of shells: 41

39 11
   PowerRTransform 0.003975716255588117 16.899663936352766 41
   6 6 6 14 14 14 26 38 38 38 38 38 50 74 74 86 110 170 194 302 302 434 434 590 590 590 302 302 194 170 170 110 110 86 86 50 38 38 26 6 6

################################################################################

# Grid for Z=40 and Zeff=12
# Cost:             -4.19764
# Number of points: 4720
# Number of shells: 34

40 12
   PowerRTransform 0.005322850021553116 16.531909209214778 34
   6 6 14 14 38 38 38 50 74 74 86 110 110 110 110 194 302 302 434 590 590 434 194 170 110 110 110 86 50 50 50 38 14 14

################################################################################

# Grid for Z=41 and Zeff=13
# Cost:             -4.18715
# Number of points: 4676
# Number of shells: 34

41 13
   PowerRTransform 0.006490549438482511 15.603135339905716 34
   6 6 14 14 38 38 50 74 74 74 86 110 110 110 170 194 302 434 434 434 590 302 194 170 110 110 110 86 50 50 50 50 26 6

################################################################################

# Grid for Z=42 and Zeff=14
# Cost:             -4.13507
# Number of points: 3708
# Number of shells: 34

42 14
   PowerRTransform 0.0011865338571111534 15.761198721034116 34
   6 6 6 14 14 26 38 50 74 74 86 110 110 110 110 110 110 110 194 302 302 434 434 194 170 110 110 86 50 50 50 38 14 6

################################################################################

# Grid for Z=43 and Zeff=15
# Cost:             -4.40900
# Number of points: 3792
# Number of shells: 34

43 15
   PowerRTransform 0.0014938046277842196 16.06155211114499 34
   6 6 6 14 14 38 38 74 74 74 86 110 110 110 146 146 110 170 194 302 434 434 302 170 110 110 110 86 50 50 50 38 14 6

################################################################################

# Grid for Z=44 and Zeff=16
# Cost:             -4.01877
# Number of points: 2980
# Number of shells: 28

44 16
   PowerRTransform 0.004143998177081433 12.81787325904883 28
   6 6 14 14 38 38 38 74 74 74 86 86 86 110 170 194 302 434 434 194 110 110 86 50 50 50 38 14

################################################################################

# Grid for Z=45 and Zeff=17
# Cost:             -4.09257
# Number of points: 3972
# Number of shells: 34

45 17
   PowerRTransform 0.00023781242552163058 14.595471513277912 34
   6 6 6 6 14 14 38 38 74 86 86 110 110 110 110 110 110 110 110 110 194 302 434 590 302 170 170 110 110 86 50 50 26 14

################################################################################

# Grid for Z=46 and Zeff=18
# Cost:             -4.29960
# Number of points: 5158
# Number of shells: 41

46 18
   PowerRTransform 0.000626307119425824 15.02384887411786 41
   6 6 6 6 14 14 14 38 38 38 38 50 74 74 74 74 74 86 110 170 194 302 434 590 434 434 434 302 170 170 110 110 110 86 86 50 50 38 38 6 6

################################################################################

# Grid for Z=47 and Zeff=19
# Cost:             -4.07648
# Number of points: 4190
# Number of shells: 41

47 19
   PowerRTransform 2.176162939971919e-05 14.167306877119087 41
   6 6 6 6 6 6 6 6 6 14 14 14 14 26 26 26 38 38 38 38 50 50 110 110 170 302 302 590 434 434 434 194 170 110 110 86 86 50 38 14 6

################################################################################

# Grid for Z=48 and Zeff=20
# Cost:             -4.31949
# Number of points: 5462
# Number of shells: 49

48 20
   PowerRTransform 1.170680447987557e-05 18.341189274546803 49
   6 6 6 6 6 6 6 6 6 6 14 14 14 14 14 26 26 26 26 38 38 38 38 50 50 110 110 194 302 434 590 590 434 434 434 302 170 170 110 110 110 86 86 50 50 50 38 6 6

################################################################################

# Grid for Z=49 and Zeff=21
# Cost:             -4.12072
# Number of points: 3738
# Number of shells: 41

49 21
   PowerRTransform 6.583685393629376e-06 14.676463619669594 41
   6 6 6 6 6 6 6 6 6 6 14 14 14 14 26 26 26 38 38 38 38 50 50 50 110 194 302 302 302 434 590 302 170 110 110 110 86 50 50 14 6

################################################################################

# Grid for Z=50 and Zeff=22
# Cost:             -4.39554
# Number of points: 4146
# Number of shells: 49

50 22
   PowerRTransform 8.517616397244864e-07 14.432180403111348 49
   6 6 6 6 6 6 6 6 6 6 6 6 6 14 14 14 14 14 14 26 26 26 26 38 38 38 38 38 50 50 86 110 110 194 302 434 590 590 302 194 170 110 110 86 50 50 50 38 14

################################################################################

# Grid for Z=51 and Zeff=23
# Cost:             -4.31914
# Number of points: 4834
# Number of shells: 49

51 23
   PowerRTransform 2.8515845662447626e-07 13.52871687269769 49
   6 6 6 6 6 6 6 6 6 6 6 6 6 6 14 14 14 14 14 14 26 26 26 38 38 38 38 38 50 50 110 110 170 302 434 590 590 434 434 302 194 170 110 110 86 50 50 38 14

################################################################################

# Grid for Z=52 and Zeff=24
# Cost:             -4.13062
# Number of points: 3790
# Number of shells: 49

52 24
   PowerRTransform 3.0783832321073416e-08 14.654216532156612 49
   6 6 6 6 6 6 6 6 6 6 6 6 6 6 6 6 14 14 14 14 14 26 26 26 26 26 38 38 38 50 50 86 110 110 194 302 434 434 434 434 194 170 110 110 50 50 38 14 6

################################################################################

# Grid for Z=53 and Zeff=25
# Cost:             -4.29354
# Number of points: 4358
# Number of shells: 49

53 25
   PowerRTransform 1.9367119855760514e-07 12.463428714197745 49
   6 6 6 6 6 6 6 6 6 6 6 6 6 6 6 14 14 14 14 14 26 26 26 26 38 38 38 38 38 50 50 86 86 110 170 194 302 434 590 590 302 194 194 170 110 110 86 50 26

################################################################################

# Grid for Z=54 and Zeff=26
# Cost:             -4.09385
# Number of points: 4402
# Number of shells: 49

54 26
   PowerRTransform 1.4531152537346752e-07 14.684831876173213 49
   6 6 6 6 6 6 6 6 6 6 6 6 6 6 14 14 14 14 14 26 26 26 26 38 38 38 38 38 50 50 110 110 170 302 302 590 434 434 434 194 170 110 110 110 86 86 50 38 14

################################################################################

# Grid for Z=55 and Zeff=9
# Cost:             -4.42755
# Number of points: 8426
# Number of shells: 49

55 9
   PowerRTransform 0.006999312014021767 22.684767578404042 49
   6 6 6 6 6 14 14 14 26 26 26 38 38 38 50 50 50 110 110 170 194 302 302 434 590 770 1202 770 590 434 302 194 194 194 170 170 170 110 110 86 86 50 50 50 38 26 14 14 6

################################################################################

# Grid for Z=56 and Zeff=10
# Cost:             -4.41385
# Number of points: 7026
# Number of shells: 49

56 10
   PowerRTransform 0.002952131535876176 19.642596145526237 49
   6 6 6 6 6 6 6 6 6 14 14 26 26 38 38 38 50 50 50 86 110 110 170 194 302 302 590 770 770 770 434 302 302 194 170 170 170 110 110 110 86 86 50 50 50 26 14 14 6

################################################################################

# Grid for Z=57 and Zeff=11
# Cost:             -4.12428
# Number of points: 4646
# Number of shells: 41

57 11
   PowerRTransform 0.0005298189421208188 18.729124776503568 41
   6 6 6 6 6 6 6 6 14 14 14 26 38 38 38 50 50 74 86 86 110 170 194 302 434 434 590 590 302 194 170 170 110 86 86 50 38 14 14 6 6

################################################################################

# Grid for Z=72 and Zeff=12
# Cost:             -4.32719
# Number of points: 6362
# Number of shells: 41

72 12
   PowerRTransform 0.000899965232714309 15.640319575068114 41
   6 6 6 6 6 6 14 14 38 38 38 38 50 74 74 110 110 110 110 170 194 302 434 590 590 590 590 590 302 194 194 170 110 110 110 86 50 50 50 26 6

################################################################################

# Grid for Z=73 and Zeff=13
# Cost:             -4.29985
# Number of points: 4950
# Number of shells: 41

73 13
   PowerRTransform 0.0008893308210040616 18.978002358521536 41
   6 6 6 6 6 14 14 14 38 38 38 50 74 74 110 110 146 170 170 146 170 194 302 302 434 590 434 302 194 170 110 110 86 86 50 50 50 38 14 14 14

################################################################################

# Grid for Z=74 and Zeff=14
# Cost:             -4.56181
# Number of points: 5870
# Number of shells: 41

74 14
   PowerRTransform 0.0015265480611689347 16.396877118497642 41
   6 6 6 6 14 14 14 38 38 38 50 74 86 110 110 146 170 170 194 194 194 194 302 434 590 770 434 302 194 170 170 110 110 110 86 50 50 50 38 14 14

################################################################################

# Grid for Z=75 and Zeff=15
# Cost:             -4.72311
# Number of points: 5882
# Number of shells: 41

75 15
   PowerRTransform 0.0016642181286457831 15.356149869567416 41
   6 6 6 6 14 14 14 38 38 50 74 74 86 86 110 146 146 146 146 110 194 194 302 434 590 590 590 302 194 194 170 170 110 110 110 86 50 50 50 50 26

################################################################################

# Grid for Z=76 and Zeff=16
# Cost:             -4.83906
# Number of points: 7190
# Number of shells: 41

76 16
   PowerRTransform 0.002346659219016098 14.830306959182627 41
   6 6 6 6 14 14 38 38 38 74 74 86 110 146 146 170 170 170 194 302 590 590 590 590 590 590 302 302 194 170 170 110 110 110 86 86 50 50 50 38 14

################################################################################

# Grid for Z=77 and Zeff=17
# Cost:             -4.08597
# Number of points: 5114
# Number of shells: 41

77 17
   PowerRTransform 0.002557160990059688 16.297464239778716 41
   6 6 6 6 14 14 26 38 38 50 74 74 110 110 110 110 110 170 302 434 590 434 302 434 434 194 170 110 110 86 86 50 50 50 50 38 38 38 14 14 14

################################################################################

# Grid for Z=78 and Zeff=18
# Cost:             -4.55460
# Number of points: 6134
# Number of shells: 41

78 18
   PowerRTransform 0.002523146875932871 16.08996682081966 41
   6 6 6 6 14 14 26 38 38 50 74 74 110 110 110 110 170 194 302 434 590 590 434 590 434 302 194 170 170 110 110 110 86 86 50 50 50 38 38 26 14

################################################################################

# Grid for Z=79 and Zeff=19
# Cost:             -4.12870
# Number of points: 3836
# Number of shells: 34

79 19
   PowerRTransform 0.0007057079240998371 13.27280661446461 34
   6 6 6 6 6 14 14 14 26 38 38 38 38 74 74 110 110 194 302 302 434 434 434 302 194 170 110 110 86 50 38 38 14 6

################################################################################

# Grid for Z=80 and Zeff=20
# Cost:             -4.51768
# Number of points: 4626
# Number of shells: 41

80 20
   PowerRTransform 0.00017031321674025956 16.35864066698173 41
   6 6 6 6 6 6 6 6 14 14 14 26 26 38 38 38 50 50 110 110 170 302 302 434 434 434 434 302 194 170 170 110 110 110 86 86 50 50 50 38 14

################################################################################

# Grid for Z=81 and Zeff=21
# Cost:             -4.10776
# Number of points: 3954
# Number of shells: 41

81 21
   PowerRTransform 4.208834529430855e-05 17.430809341158174 41
   6 6 6 6 6 6 6 6 6 6 14 14 14 26 26 26 38 38 38 50 50 86 110 194 302 590 434 434 434 194 170 110 110 110 86 50 50 50 26 14 6

################################################################################

# Grid for Z=82 and Zeff=22
# Cost:             -4.59075
# Number of points: 5514
# Number of shells: 49

82 22
   PowerRTransform 6.3886276686723435e-06 15.974821799251297 49
   6 6 6 6 6 6 6 6 6 6 6 6 14 14 14 14 14 26 26 26 26 38 38 38 50 50 86 110 110 170 302 434 590 590 590 590 302 194 170 170 110 110 110 86 86 50 50 38 6

################################################################################

# Grid for Z=83 and Zeff=23
# Cost:             -4.31767
# Number of points: 4802
# Number of shells: 49

83 23
   PowerRTransform 2.173303852725525e-06 14.379811745858653 49
   6 6 6 6 6 6 6 6 6 6 6 6 6 6 14 14 14 14 14 26 26 26 38 38 38 38 50 50 86 110 170 194 302 590 434 434 434 434 302 194 170 110 110 86 50 50 38 14 6
