# -*- coding: utf-8 -*-
# HORTON: Helpful Open-source Research TOol for N-fermion systems.
# Copyright (C) 2011-2019 The HORTON Development Team
#
# This file is part of HORTON.
#
# HORTON is free software; you can redistribute it and/or
# modify it under the terms of the GNU General Public License
# as published by the Free Software Foundation; either version 3
# of the License, or (at your option) any later version.
#
# HORTON is distributed in the hope that it will be useful,
# but WITHOUT ANY WARRANTY; without even the implied warranty of
# MERCHANTABILITY or FITNESS FOR A PARTICULAR PURPOSE.  See the
# GNU General Public License for more details.
#
# You should have received a copy of the GNU General Public License
# along with this program; if not, see <http://www.gnu.org/licenses/>
#
# --


## These grids were created by Toon Verstraelen in July 2013 in a second effort
## to generate tuned grids based on a series of diatomic benchmarks computed
## with the QZVP basis of Ahlrichs and coworkers. They are constructed to give
## on average 7 digits of precision for a variety of molecular integrals, using
## the Becke scheme with k=3.


# Cost threshold for grid selection:   -7.00000

# Grid for Z=1 and Zeff=1
# Cost:             -7.38835
# Number of points: 4546
# Number of shells: 49

1 1
   PowerRTransform 4.883104847991021e-08 21.05456999309752 49
   6 6 6 6 6 6 6 6 6 6 6 6 6 14 14 14 14 14 26 38 38 38 50 50 74 86 110 170 194 302 302 434 302 302 302 194 170 170 170 170 110 110 110 110 110 86 50 14 6

################################################################################

# Grid for Z=2 and Zeff=2
# Cost:             -7.51832
# Number of points: 4998
# Number of shells: 49

2 2
   PowerRTransform 5.437393374755265e-08 23.388258860033826 49
   6 6 6 6 6 6 6 6 6 6 6 14 14 14 14 26 26 38 38 50 50 74 86 110 170 170 194 302 302 302 302 302 302 302 194 194 170 170 170 170 170 110 110 110 86 50 14 6 6

################################################################################

# Grid for Z=3 and Zeff=3
# Cost:             -7.21394
# Number of points: 28146
# Number of shells: 123

3 3
   PowerRTransform 4.341549035112616e-10 20.603828898762142 123
   6 6 6 6 6 6 6 6 6 6 6 6 6 6 6 6 6 6 6 6 6 6 6 6 6 6 6 6 6 6 6 6 6 6 6 6 6 6 6 14 14 14 14 14 14 14 14 14 14 14 14 26 26 26 26 26 38 38 38 38 38 50 50 50 50 50 86 86 86 110 110 110 170 170 194 194 302 302 302 434 590 770 974 974 1730 2030 1730 1454 974 1730 1454 1454 1454 1202 770 590 434 434 302 302 302 302 302 194 194 194 170 170 170 170 170 110 110 110 110 110 86 50 50 38 26 14 14

################################################################################

# Grid for Z=4 and Zeff=4
# Cost:             -7.84031
# Number of points: 23522
# Number of shells: 103

4 4
   PowerRTransform 1.0516092257213497e-09 20.18969248161497 103
   6 6 6 6 6 6 6 6 6 6 6 6 6 6 6 6 6 6 6 6 6 6 6 6 6 6 6 14 14 14 14 14 14 14 14 14 14 14 26 26 26 26 38 38 38 38 50 50 50 50 74 86 86 110 110 146 170 194 194 302 302 434 590 770 974 1454 1730 1202 974 770 590 770 974 1202 974 1202 974 590 434 434 434 302 302 302 302 194 194 194 170 170 170 170 170 110 110 110 110 110 86 86 50 50 38

################################################################################

# Grid for Z=5 and Zeff=5
# Cost:             -7.14213
# Number of points: 11722
# Number of shells: 85

5 5
   PowerRTransform 2.382112492245373e-09 17.133675481298706 85
   6 6 6 6 6 6 6 6 6 6 6 6 6 6 6 6 6 6 6 6 6 6 6 14 14 14 14 14 14 14 14 14 14 26 26 26 26 38 38 38 38 38 50 50 50 50 86 86 110 110 170 170 170 170 302 434 590 770 770 770 974 770 590 590 434 302 302 302 194 194 194 170 170 170 110 110 110 110 110 86 86 50 50 50 14

################################################################################

# Grid for Z=6 and Zeff=6
# Cost:             -7.58166
# Number of points: 8314
# Number of shells: 71

6 6
   PowerRTransform 9.854884123569506e-09 28.164357695660463 71
   6 6 6 6 6 6 6 6 6 6 6 6 6 6 6 14 14 14 14 14 14 14 14 26 26 26 38 38 38 38 50 50 86 110 110 110 110 110 110 146 170 194 302 434 434 590 770 434 434 302 302 194 170 170 170 170 170 170 110 170 170 110 110 110 110 110 110 86 50 50 14

################################################################################

# Grid for Z=7 and Zeff=7
# Cost:             -7.13238
# Number of points: 18082
# Number of shells: 103

7 7
   PowerRTransform 1.3870633268047871e-09 26.62603655056261 103
   6 6 6 6 6 6 6 6 6 6 6 6 6 6 6 6 6 6 6 6 14 14 14 14 14 14 14 14 14 14 14 26 26 26 26 26 38 38 38 38 38 50 50 50 74 110 110 170 170 170 170 170 170 170 170 170 170 194 194 302 302 434 590 770 974 974 1202 1454 1202 974 770 590 434 434 302 302 302 266 194 194 194 170 170 170 170 110 110 110 110 110 110 110 110 86 50 50 14 6 6 6 6 6 6

################################################################################

# Grid for Z=8 and Zeff=8
# Cost:             -7.29619
# Number of points: 18938
# Number of shells: 103

8 8
   PowerRTransform 1.048662998896687e-09 20.1293742339629 103
   6 6 6 6 6 6 6 6 6 6 6 6 6 6 6 6 6 6 6 6 6 14 14 14 14 14 14 14 14 14 14 14 14 14 26 26 26 26 26 38 38 38 38 50 50 50 86 86 110 110 110 110 110 170 170 170 302 302 434 590 770 974 1202 1454 770 590 770 590 590 770 590 590 590 434 434 302 302 302 266 194 194 194 194 194 194 170 170 170 170 170 170 110 110 110 110 110 86 86 50 50 14 14 14

################################################################################

# Grid for Z=9 and Zeff=9
# Cost:             -7.04474
# Number of points: 13602
# Number of shells: 85

9 9
   PowerRTransform 1.971541025462189e-09 14.181596367188414 85
   6 6 6 6 6 6 6 6 6 6 6 6 6 6 6 6 6 6 6 14 14 14 14 14 14 14 14 14 14 14 26 26 26 26 38 38 38 38 50 50 50 50 86 86 110 110 110 170 170 302 302 434 590 770 974 770 590 590 590 434 590 434 434 434 302 302 302 302 302 302 266 194 170 170 170 170 170 110 110 110 110 86 86 50 14

################################################################################

# Grid for Z=10 and Zeff=10
# Cost:             -7.32374
# Number of points: 18998
# Number of shells: 103

10 10
   PowerRTransform 1.0395159088914222e-09 19.95538890148213 103
   6 6 6 6 6 6 6 6 6 6 6 6 6 6 6 6 6 6 6 6 6 14 14 14 14 14 14 14 14 14 14 14 14 14 26 26 26 26 38 38 38 38 38 50 50 50 50 86 86 86 110 110 110 170 194 194 302 302 434 770 974 1202 1202 974 590 770 590 590 590 590 590 434 434 434 434 434 302 302 302 302 302 266 194 194 194 194 170 170 170 170 170 170 110 110 110 110 110 110 50 50 50 14 14

################################################################################

# Grid for Z=11 and Zeff=11
# Cost:             -7.13870
# Number of points: 33076
# Number of shells: 148

11 11
   PowerRTransform 2.1767003782695644e-10 26.662542526839502 148
   6 6 6 6 6 6 6 6 6 6 6 6 6 6 6 6 6 6 6 6 6 6 6 6 6 6 6 6 6 6 6 6 6 6 6 14 14 14 14 14 14 14 14 14 14 14 14 14 14 14 14 14 14 14 14 14 14 14 14 26 26 26 26 26 26 26 26 38 38 38 38 38 38 38 38 50 50 50 50 50 50 74 86 86 86 110 110 110 110 170 170 170 194 194 302 302 302 434 434 590 770 770 1202 1454 1730 2030 2030 2030 2030 2030 1730 1202 974 974 770 590 434 434 434 302 302 302 302 302 302 194 194 194 194 170 170 170 110 110 110 86 86 86 50 50 50 50 50 50 38 14 14 14

################################################################################

# Grid for Z=12 and Zeff=12
# Cost:             -7.32195
# Number of points: 42384
# Number of shells: 148

12 12
   PowerRTransform 1.9212076758973303e-10 23.524265537846105 148
   6 6 6 6 6 6 6 6 6 6 6 6 6 6 6 6 6 6 6 6 6 6 6 6 6 6 6 6 6 6 6 14 14 14 14 14 14 14 14 14 14 14 14 14 14 14 14 14 14 14 14 14 14 14 26 26 26 26 26 26 26 26 26 38 38 38 38 38 38 38 38 50 50 50 50 50 50 74 86 86 86 110 110 110 170 170 170 170 194 302 302 302 434 434 590 770 770 974 1202 1202 1202 1202 1454 1730 2030 2030 2030 2030 2030 2030 2030 1730 1202 1202 974 590 590 590 434 434 434 302 302 302 302 302 302 266 194 194 194 170 170 170 170 170 110 110 110 110 86 50 50 50 38 6 6 6

################################################################################

# Grid for Z=13 and Zeff=13
# Cost:             -8.94994
# Number of points: 46954
# Number of shells: 213

13 13
   PowerRTransform 6.962371256849666e-14 32.22656758986397 213
   6 6 6 6 6 6 6 6 6 6 6 6 6 6 6 6 6 6 6 6 6 6 6 6 6 6 6 6 6 6 6 6 6 6 6 6 6 6 6 6 6 6 6 6 6 6 6 6 6 6 6 6 6 14 14 14 14 14 14 14 14 14 14 14 14 14 14 14 14 14 14 14 14 14 14 14 14 14 14 14 14 14 14 14 26 26 26 26 26 26 26 26 26 26 26 38 38 38 38 38 38 38 38 38 38 38 50 50 50 50 50 50 50 50 50 50 50 50 74 74 74 86 86 86 86 110 110 110 110 110 146 170 170 170 170 194 194 194 302 302 302 434 434 434 590 770 770 974 1202 1454 1730 2030 2030 2030 2030 2030 2030 2030 1730 1730 1454 1202 1202 1202 770 590 590 434 434 434 302 302 302 302 302 302 302 302 302 194 194 194 194 194 170 170 170 170 170 170 170 170 170 110 110 110 110 110 110 110 110 110 110 110 86 50 50 50 6 6 6 6 6

################################################################################

# Grid for Z=14 and Zeff=14
# Cost:             -7.00552
# Number of points: 40104
# Number of shells: 178

14 14
   PowerRTransform 9.85512828510252e-11 31.01907199523565 178
   6 6 6 6 6 6 6 6 6 6 6 6 6 6 6 6 6 6 6 6 6 6 6 6 6 6 6 6 6 6 6 14 14 14 14 14 14 14 14 14 14 14 14 14 14 14 14 14 14 14 14 14 14 14 14 14 26 26 26 26 26 26 26 26 26 38 38 38 38 38 38 38 38 38 38 50 50 50 50 50 50 50 50 50 50 50 50 50 74 86 86 86 86 86 110 110 110 110 146 170 170 170 194 194 194 302 302 434 434 434 590 590 770 974 1202 1202 1454 2030 2030 2030 2030 2030 1730 1730 1454 1202 770 770 590 590 434 434 434 434 302 302 302 302 302 302 302 302 194 194 194 194 170 170 170 170 170 170 170 110 110 110 110 110 110 110 110 110 110 110 110 110 110 110 110 110 110 86 86 50 50 50 14 14

################################################################################

# Grid for Z=15 and Zeff=15
# Cost:             -7.24115
# Number of points: 46456
# Number of shells: 178

15 15
   PowerRTransform 6.691091155335874e-11 21.077169721804765 178
   6 6 6 6 6 6 6 6 6 6 6 6 6 6 6 6 6 6 6 6 6 6 6 6 6 6 6 6 6 6 6 6 6 6 6 14 14 14 14 14 14 14 14 14 14 14 14 14 14 14 14 14 14 14 14 14 14 14 14 14 26 26 26 26 26 26 26 26 26 26 26 38 38 38 38 38 38 38 38 38 38 38 38 38 50 50 50 50 50 74 74 86 86 86 86 110 110 110 110 170 170 170 194 194 194 266 302 302 302 434 434 434 590 770 770 974 974 1202 1730 2030 2030 2030 2030 1730 1202 1202 1454 1202 2030 1454 1730 1730 1454 974 770 590 590 434 434 434 434 434 302 302 302 302 302 194 194 194 194 170 170 170 170 170 170 110 110 110 110 110 110 110 110 110 110 110 86 86 50 50 50 50 26 14 14 14

################################################################################

# Grid for Z=16 and Zeff=16
# Cost:             -7.03924
# Number of points: 49628
# Number of shells: 178

16 16
   PowerRTransform 1.1493934937682403e-10 36.14314018817024 178
   6 6 6 6 6 6 6 6 6 6 6 6 6 6 6 6 6 6 6 6 6 6 6 6 6 6 6 6 6 14 14 14 14 14 14 14 14 14 14 14 14 14 14 14 14 14 14 14 14 14 14 14 26 26 26 26 26 26 26 26 26 38 38 38 38 38 38 38 38 38 38 38 50 50 50 50 50 50 50 50 74 86 86 86 86 110 110 110 146 170 170 170 194 194 302 302 302 434 434 434 590 770 770 974 1202 1730 1454 2030 2030 2030 2030 1730 1730 2030 2030 2030 2030 2030 2030 1454 974 770 770 590 590 590 434 434 434 434 302 302 302 302 302 194 194 194 194 170 170 170 170 170 110 110 110 110 110 110 110 110 110 110 110 110 110 110 110 86 86 50 50 50 50 50 50 14 14 14 14 6 6 6 6 6 6 6

################################################################################

# Grid for Z=17 and Zeff=17
# Cost:             -7.10192
# Number of points: 44192
# Number of shells: 178

17 17
   PowerRTransform 9.154135511113964e-11 28.809015050246263 178
   6 6 6 6 6 6 6 6 6 6 6 6 6 6 6 6 6 6 6 6 6 6 6 6 6 6 6 6 6 14 14 14 14 14 14 14 14 14 14 14 14 14 14 14 14 14 14 14 14 14 14 14 14 26 26 26 26 26 26 26 26 26 26 26 38 38 38 38 38 38 38 38 38 50 50 50 50 50 50 50 50 50 50 50 74 74 74 86 86 86 86 110 110 110 110 110 146 170 170 170 194 194 194 194 302 302 302 434 590 590 590 770 974 1454 1730 2030 2030 1730 2030 2030 2030 2030 2030 1730 1202 1202 1202 770 770 590 590 434 434 434 434 434 434 302 302 302 302 302 266 194 194 194 194 170 170 170 170 110 110 110 110 110 110 110 110 110 86 86 110 110 110 110 86 86 86 50 50 50 14 14 14 14 14 6

################################################################################

# Grid for Z=18 and Zeff=18
# Cost:             -7.19027
# Number of points: 58602
# Number of shells: 213

18 18
   PowerRTransform 4.062196109447131e-11 32.077941530798896 213
   6 6 6 6 6 6 6 6 6 6 6 6 6 6 6 6 6 6 6 6 6 6 6 6 6 6 6 6 6 6 6 6 6 6 6 6 14 14 14 14 14 14 14 14 14 14 14 14 14 14 14 14 14 14 14 14 14 14 14 14 14 26 26 26 26 26 26 26 26 26 26 26 26 26 26 38 38 38 38 38 38 38 38 38 38 38 50 50 50 50 50 50 50 50 50 50 74 74 86 86 86 86 86 110 110 110 110 110 170 170 170 194 194 194 194 266 302 302 302 434 434 434 434 590 770 770 974 974 1202 1454 1730 2030 2030 2030 2030 2030 2030 2030 1454 1202 1454 1730 2030 2030 2030 1730 1202 1202 974 770 770 590 590 434 434 434 434 434 302 302 302 302 302 302 302 302 266 194 194 194 194 194 194 170 170 170 170 170 170 170 110 110 110 110 110 110 110 110 110 110 86 86 86 86 50 50 50 38 38 26 26 6 6 6 6 6 6 6 6 6 6 6 6

################################################################################

# Grid for Z=19 and Zeff=19
# Cost:             -7.24768
# Number of points: 58566
# Number of shells: 213

19 19
   PowerRTransform 3.3682690476571465e-11 26.623412134824065 213
   6 6 6 6 6 6 6 6 6 6 6 6 6 6 6 6 6 6 6 6 6 6 6 6 6 6 6 6 6 6 6 6 6 6 6 6 6 6 6 6 6 6 6 14 14 14 14 14 14 14 14 14 14 14 14 14 14 14 14 14 14 14 14 14 14 14 14 14 14 14 14 14 14 14 26 26 26 26 26 26 26 26 26 26 26 26 26 26 26 26 26 26 26 38 38 38 38 38 38 38 38 38 38 38 38 50 50 50 50 50 50 50 50 50 50 74 74 74 86 86 86 86 86 110 110 110 110 110 110 146 170 170 170 170 194 194 194 194 194 302 302 302 302 434 434 590 590 770 770 974 1202 1454 1730 2030 2030 2030 2030 2030 2030 2030 2030 2030 2030 2030 2030 1730 1454 1202 1202 974 770 770 590 590 590 590 434 434 434 434 434 434 434 434 302 302 302 302 302 302 302 302 266 194 194 194 194 170 170 170 170 110 110 110 86 86 50 50 50 38 26 6 6

################################################################################

# Grid for Z=20 and Zeff=20
# Cost:             -7.32490
# Number of points: 67666
# Number of shells: 213

20 20
   PowerRTransform 3.801538692563615e-11 30.00529257889544 213
   6 6 6 6 6 6 6 6 6 6 6 6 6 6 6 6 6 6 6 6 6 6 6 6 6 6 6 6 6 6 6 6 6 6 6 6 6 6 14 14 14 14 14 14 14 14 14 14 14 14 14 14 14 14 14 14 14 14 14 14 26 26 26 26 26 26 26 26 26 26 26 26 26 26 26 26 26 26 26 26 26 38 38 38 38 38 38 38 38 38 38 38 38 38 50 50 50 50 50 50 50 50 50 50 74 74 86 86 86 86 86 86 110 110 110 110 110 110 146 170 170 170 194 194 194 194 194 302 302 302 434 434 590 590 770 770 974 974 1202 1202 1454 1454 1202 1454 1454 1454 1730 2030 2030 2030 2030 2030 2030 2030 2030 2030 2030 2030 1730 2030 1730 1454 1202 974 770 770 590 590 590 434 434 434 434 434 434 434 302 302 302 302 302 302 302 302 194 194 194 194 194 194 194 170 170 170 146 110 110 110 110 110 110 110 110 86 86 50 50 50 50 50 50 6 6

################################################################################

# Grid for Z=21 and Zeff=21
# Cost:             -7.12094
# Number of points: 44348
# Number of shells: 178

21 21
   PowerRTransform 7.702560166736684e-11 24.24990510332653 178
   6 6 6 6 6 6 6 6 6 6 6 6 6 6 6 6 6 6 6 6 6 6 6 6 6 6 6 6 6 6 6 6 6 14 14 14 14 14 14 14 14 14 14 14 14 14 14 14 26 26 26 26 26 26 26 26 26 26 26 26 26 26 38 38 38 38 38 38 38 38 38 38 38 38 38 38 38 50 74 74 74 74 74 86 110 110 110 110 110 110 110 110 110 110 110 110 110 110 110 110 110 110 110 110 110 110 110 110 170 170 170 170 194 194 194 194 302 302 302 434 434 590 590 590 770 974 1202 1454 1730 2030 2030 2030 2030 2030 2030 1454 1454 1454 1454 1202 1202 590 590 590 434 434 434 434 302 302 302 302 302 302 194 194 194 194 194 170 170 170 170 170 110 110 110 110 110 110 110 86 86 74 50 50 50 26

################################################################################

# Grid for Z=22 and Zeff=22
# Cost:             -7.00918
# Number of points: 35432
# Number of shells: 148

22 22
   PowerRTransform 1.8439505410421995e-10 22.57663680593907 148
   6 6 6 6 6 6 6 6 6 6 6 6 6 6 6 6 6 6 6 6 6 6 6 6 6 6 6 6 14 14 14 14 14 14 14 14 14 14 14 14 26 26 26 26 26 26 26 26 26 26 26 38 38 38 38 38 38 38 38 38 38 38 50 74 74 74 74 74 110 110 110 110 110 110 110 110 110 110 110 110 110 110 110 110 170 170 170 170 170 194 194 194 194 194 194 194 194 302 302 302 434 434 770 770 1202 1454 1730 2030 2030 2030 2030 2030 2030 1730 974 770 590 590 434 434 434 302 302 302 302 302 194 194 194 194 194 170 170 170 170 110 110 110 110 86 86 50 50 38 38 14 6 6

################################################################################

# Grid for Z=23 and Zeff=23
# Cost:             -7.32217
# Number of points: 53212
# Number of shells: 178

23 23
   PowerRTransform 8.76305519509983e-11 27.577766936617447 178
   6 6 6 6 6 6 6 6 6 6 6 6 6 6 6 6 6 6 6 6 6 6 6 6 6 6 6 6 6 14 14 14 14 14 14 14 14 14 14 14 14 14 26 26 26 26 26 26 26 26 26 26 26 26 38 38 38 38 38 38 38 38 38 38 38 38 38 74 74 74 74 74 74 74 86 110 110 110 146 170 170 170 170 194 194 194 194 194 194 194 194 194 194 194 194 194 194 194 194 302 302 302 302 302 302 302 302 302 302 302 302 302 302 590 590 590 770 770 974 1202 1454 2030 2030 2030 2030 1730 2030 2030 2030 2030 2030 1730 1454 1202 974 974 770 590 590 590 590 434 434 434 302 302 302 302 302 302 302 302 194 194 194 194 170 170 110 110 110 110 110 110 110 110 110 110 110 110 86 86 86 50 50 14 14 14

################################################################################

# Grid for Z=24 and Zeff=24
# Cost:             -7.34566
# Number of points: 55124
# Number of shells: 178

24 24
   PowerRTransform 6.842686093997382e-11 21.539651716124855 178
   6 6 6 6 6 6 6 6 6 6 6 6 6 6 6 6 6 6 6 6 6 6 6 6 6 6 6 6 6 14 14 14 14 14 14 14 14 14 14 14 14 14 26 26 26 26 26 26 26 26 26 26 26 26 38 38 38 38 38 38 38 38 38 38 38 38 38 50 74 74 74 74 74 74 74 86 110 110 110 146 170 170 170 194 194 266 266 266 266 266 266 266 266 266 266 266 266 302 302 302 302 302 302 302 302 302 302 302 302 434 434 350 350 302 302 302 302 434 434 434 590 590 590 974 974 1202 1730 2030 2030 2030 2030 2030 2030 2030 2030 2030 2030 1454 1202 974 770 770 590 590 590 434 434 434 434 434 302 302 302 302 302 302 302 302 194 194 194 194 194 170 170 170 170 170 110 110 110 110 110 50 50 50 38 6

################################################################################

# Grid for Z=25 and Zeff=25
# Cost:             -7.31736
# Number of points: 65012
# Number of shells: 178

25 25
   PowerRTransform 6.59584341613485e-11 20.764150087800925 178
   6 6 6 6 6 6 6 6 6 6 6 6 6 6 6 6 6 6 6 6 6 6 6 6 6 6 6 6 14 14 14 14 14 14 14 14 14 14 14 14 14 14 14 26 26 26 26 26 26 26 26 26 26 26 38 38 38 38 38 38 38 38 38 38 38 38 38 50 50 74 74 74 74 74 86 110 110 110 110 110 170 170 194 194 194 194 194 194 194 194 194 194 194 194 194 194 194 194 194 194 194 194 302 302 302 302 302 302 302 302 434 434 434 590 590 770 770 974 974 1454 2030 1730 2030 1730 1730 2030 2030 2030 2030 2030 2030 2030 2030 2030 2030 2030 2030 2030 1202 1202 974 770 770 590 590 590 434 434 434 434 302 302 302 302 302 302 302 302 194 194 194 194 194 170 170 170 110 110 110 110 86 50 50 50 26 14 6 6

################################################################################

# Grid for Z=26 and Zeff=26
# Cost:             -7.29612
# Number of points: 54572
# Number of shells: 178

26 26
   PowerRTransform 8.28118541791687e-11 26.059063484349952 178
   6 6 6 6 6 6 6 6 6 6 6 6 6 6 6 6 6 6 6 6 6 6 6 6 6 6 6 14 14 14 14 14 14 14 14 14 14 14 14 14 26 26 26 26 26 26 26 26 26 26 26 38 38 38 38 38 38 38 38 38 38 38 38 74 74 74 74 74 74 74 86 110 110 110 146 170 170 170 230 266 266 266 266 266 266 266 266 266 266 266 266 266 266 266 266 302 302 302 350 350 434 434 434 434 434 302 302 302 302 434 434 434 434 434 434 590 590 770 770 1202 1454 1730 2030 2030 2030 2030 2030 2030 2030 2030 2030 1454 1202 974 770 770 590 590 590 434 434 434 434 434 434 302 302 302 302 302 302 302 194 194 194 194 194 170 170 170 170 170 110 110 110 110 86 86 86 50 50 50 50 38 14 6 6 6

################################################################################

# Grid for Z=27 and Zeff=27
# Cost:             -7.07582
# Number of points: 54356
# Number of shells: 178

27 27
   PowerRTransform 1.186920153521497e-10 37.326022062605034 178
   6 6 6 6 6 6 6 6 6 6 6 6 6 6 6 6 6 6 6 6 6 6 6 6 6 14 14 14 14 14 14 14 14 14 14 14 14 14 26 26 26 26 26 26 26 26 26 26 38 38 38 38 38 38 38 38 38 38 38 50 74 74 74 74 74 74 86 110 110 110 170 170 170 194 194 194 194 194 194 194 194 194 194 194 194 194 194 194 194 194 194 194 194 302 302 302 302 302 302 302 434 434 434 590 770 770 974 974 1730 1730 2030 2030 2030 2030 2030 2030 2030 2030 2030 2030 2030 1730 1454 974 770 770 590 590 590 434 434 434 434 302 302 302 302 302 302 266 194 194 194 170 170 170 170 170 170 170 110 110 110 110 110 110 110 110 110 110 110 110 86 86 50 50 50 6 6 6 6 6 6 6 6 6 6 6

################################################################################

# Grid for Z=28 and Zeff=28
# Cost:             -7.31697
# Number of points: 61932
# Number of shells: 178

28 28
   PowerRTransform 6.190468372062422e-11 19.492997845974926 178
   6 6 6 6 6 6 6 6 6 6 6 6 6 6 6 6 6 6 6 6 6 6 6 6 6 6 6 6 14 14 14 14 14 14 14 14 14 14 14 14 14 14 26 26 26 26 26 26 26 26 26 26 26 26 38 38 38 38 38 38 38 38 38 38 38 50 50 50 50 74 74 74 74 86 86 110 110 110 110 170 170 170 194 194 194 194 194 194 194 194 194 194 194 194 194 194 194 194 194 194 194 194 194 194 194 302 302 302 302 302 302 302 302 434 434 434 590 770 770 974 974 1454 1730 2030 2030 2030 2030 2030 2030 2030 2030 2030 2030 2030 2030 2030 2030 2030 1454 1202 770 770 770 590 590 434 434 434 434 434 302 302 302 302 302 302 302 302 266 194 194 194 194 170 170 170 170 110 110 110 110 110 86 86 50 50 38 14

################################################################################

# Grid for Z=29 and Zeff=29
# Cost:             -8.32297
# Number of points: 46310
# Number of shells: 213

29 29
   PowerRTransform 6.970873074455674e-14 27.941098295748553 213
   6 6 6 6 6 6 6 6 6 6 6 6 6 6 6 6 6 6 6 6 6 6 6 6 6 6 6 6 6 6 6 6 6 6 6 6 6 6 6 6 6 6 6 6 6 6 6 6 6 6 6 14 14 14 14 14 14 14 14 14 14 14 14 14 14 14 14 14 14 26 26 26 26 26 26 26 26 26 26 26 26 26 26 26 26 26 26 26 26 26 38 38 38 38 38 38 38 38 38 38 38 38 38 38 38 38 38 38 38 38 50 50 50 50 50 50 50 50 50 50 74 74 74 74 74 86 86 86 86 86 110 110 110 110 146 170 170 170 194 194 194 194 194 302 302 302 434 434 590 590 770 770 974 1202 1454 1730 2030 2030 2030 2030 2030 2030 2030 2030 1454 1454 1202 974 770 770 590 590 434 434 434 434 434 302 302 302 302 302 302 302 302 194 194 194 170 170 170 170 170 170 170 110 110 110 110 110 74 50 50 38 14 6 6 6 6 6 6 6 6

################################################################################

# Grid for Z=30 and Zeff=30
# Cost:             -8.39267
# Number of points: 52794
# Number of shells: 213

30 30
   PowerRTransform 6.970281955137271e-14 27.94201616677514 213
   6 6 6 6 6 6 6 6 6 6 6 6 6 6 6 6 6 6 6 6 6 6 6 6 6 6 6 6 6 6 6 6 6 6 6 6 6 6 6 6 6 6 6 6 6 6 6 6 6 6 14 14 14 14 14 14 14 14 14 14 14 14 14 14 14 14 14 14 14 26 26 26 26 26 26 26 26 26 26 26 26 26 26 26 26 26 26 38 38 38 38 38 38 38 38 38 38 38 38 38 38 38 38 38 38 38 50 50 50 50 50 50 50 50 50 50 50 74 74 74 74 74 86 86 110 110 110 110 110 170 170 170 194 194 194 194 302 302 302 434 434 434 590 770 770 974 974 1202 1730 2030 2030 2030 2030 2030 1730 1730 2030 2030 2030 2030 2030 2030 1454 1202 770 770 590 590 434 434 434 434 434 302 302 302 302 302 302 302 266 194 194 194 194 194 194 170 170 170 170 170 110 110 110 110 110 110 86 86 86 50 50 50 38 14 6 6 6 6 6 6 6

################################################################################

# Grid for Z=31 and Zeff=31
# Cost:             -8.27584
# Number of points: 63532
# Number of shells: 256

31 31
   PowerRTransform 5.864754912012971e-14 33.735223042772205 256
   6 6 6 6 6 6 6 6 6 6 6 6 6 6 6 6 6 6 6 6 6 6 6 6 6 6 6 6 6 6 6 6 6 6 6 6 6 6 6 6 6 6 6 6 6 6 6 6 6 6 6 6 6 6 6 6 14 14 14 14 14 14 14 14 14 14 14 14 14 14 14 14 14 14 14 14 14 14 14 14 14 14 26 26 26 26 26 26 26 26 26 26 26 26 26 26 26 26 26 26 26 26 26 26 38 38 38 38 38 38 38 38 38 38 38 38 38 38 38 38 38 38 38 38 50 50 50 50 50 50 50 50 50 50 50 50 50 50 50 74 86 86 86 86 110 110 110 110 110 170 170 170 194 194 194 194 302 302 302 302 434 434 434 590 590 590 770 974 1202 1202 1454 1730 2030 2030 2030 2030 2030 1730 1730 2030 2030 2030 2030 1730 2030 2030 2030 1730 1454 1202 770 770 770 590 434 434 434 434 302 302 302 302 302 302 302 302 302 302 266 194 194 194 194 170 170 170 170 170 170 170 170 170 170 170 170 170 110 110 110 110 110 110 110 110 110 110 110 110 110 110 110 86 50 50 50 50 50 6 6 6 6 6 6 6 6 6

################################################################################

# Grid for Z=32 and Zeff=32
# Cost:             -7.81577
# Number of points: 48600
# Number of shells: 308

32 32
   PowerRTransform 1.0197020720235971e-13 34.19611932452482 308
   6 6 6 6 6 6 6 6 6 6 6 6 6 6 6 6 6 6 6 6 6 6 6 6 6 6 6 6 6 6 6 6 6 6 6 6 6 6 6 6 6 6 6 6 6 6 6 6 6 6 6 6 6 6 6 6 6 6 6 6 6 6 6 6 6 6 14 14 14 14 14 14 14 14 14 14 14 14 14 14 14 14 14 14 14 14 14 14 14 14 14 14 14 14 14 14 14 14 14 26 26 26 26 26 26 26 26 26 26 26 26 26 26 26 26 26 26 26 26 26 26 26 26 26 26 26 26 26 38 38 38 38 38 38 38 38 38 38 38 38 38 38 38 38 38 38 38 38 38 38 50 50 50 50 50 50 50 50 50 50 50 50 50 50 50 50 50 50 50 50 74 74 86 86 86 86 86 86 110 110 110 110 110 110 170 170 170 170 170 194 194 194 194 194 194 194 302 302 302 302 302 434 434 590 590 590 590 770 770 974 974 1202 1730 1454 2030 1730 2030 1454 1730 1730 1454 1202 974 974 770 590 590 590 434 434 434 434 434 434 302 302 302 302 302 302 302 266 266 194 194 194 194 194 194 170 170 170 170 170 170 170 110 110 110 110 110 110 110 110 110 110 110 110 110 110 110 110 110 86 86 86 86 86 86 86 86 86 86 86 86 86 86 50 50 50 50 50 50 50 14 14 14 14 14 14 6 6 6 6 6 6 6 6

################################################################################

# Grid for Z=33 and Zeff=33
# Cost:             -8.01656
# Number of points: 44294
# Number of shells: 213

33 33
   PowerRTransform 2.9180447172839345e-14 23.221629139900294 213
   6 6 6 6 6 6 6 6 6 6 6 6 6 6 6 6 6 6 6 6 6 6 6 6 6 6 6 6 6 6 6 6 6 6 6 6 6 6 6 6 6 6 6 6 6 6 6 6 6 6 6 6 6 14 14 14 14 14 14 14 14 14 14 14 14 14 14 14 14 14 14 14 14 14 14 14 14 26 26 26 26 26 26 26 26 26 26 26 26 26 26 26 26 26 26 26 26 26 26 38 38 38 38 38 38 38 38 38 38 38 38 38 38 38 50 50 50 50 50 50 50 50 50 50 50 50 50 86 86 86 110 110 110 110 110 146 170 194 194 194 194 194 302 302 434 434 590 590 770 770 770 974 974 974 770 770 770 974 1202 1454 1730 2030 2030 2030 2030 2030 1730 1202 1202 974 770 590 590 590 434 434 434 434 302 302 302 302 302 302 194 194 194 170 170 170 170 170 170 110 110 110 110 110 86 86 86 50 50 50 50 50 38 38 38 38 14 14 14

################################################################################

# Grid for Z=34 and Zeff=34
# Cost:             -8.08082
# Number of points: 43600
# Number of shells: 256

34 34
   PowerRTransform 3.4292424501022244e-16 26.19276176906384 256
   6 6 6 6 6 6 6 6 6 6 6 6 6 6 6 6 6 6 6 6 6 6 6 6 6 6 6 6 6 6 6 6 6 6 6 6 6 6 6 6 6 6 6 6 6 6 6 6 6 6 6 6 6 6 6 6 6 6 6 6 6 6 6 6 6 6 6 6 6 6 6 14 14 14 14 14 14 14 14 14 14 14 14 14 14 14 14 14 14 14 14 14 14 14 14 14 14 14 14 14 14 26 26 26 26 26 26 26 26 26 26 26 26 26 26 26 26 26 26 26 26 26 26 26 26 26 26 26 26 26 38 38 38 38 38 38 38 38 38 38 38 38 38 50 50 50 50 50 50 50 50 50 50 50 50 50 50 50 50 74 74 74 74 86 86 86 86 110 110 110 110 110 170 170 170 170 194 194 194 194 302 302 302 302 434 434 434 590 770 770 974 1202 1202 1454 2030 2030 2030 2030 2030 2030 2030 1454 1202 1202 770 770 770 590 590 434 434 434 434 434 434 302 302 302 302 266 194 194 194 194 194 170 170 170 110 110 110 110 110 110 86 86 86 86 50 50 50 50 50 38 38 38 26 14 14 14 6 6 6 6 6 6

################################################################################

# Grid for Z=35 and Zeff=35
# Cost:             -8.00139
# Number of points: 62096
# Number of shells: 256

35 35
   PowerRTransform 9.355094165582756e-14 22.355281357450373 256
   6 6 6 6 6 6 6 6 6 6 6 6 6 6 6 6 6 6 6 6 6 6 6 6 6 6 6 6 6 6 6 6 6 6 6 6 6 6 6 6 6 6 6 6 6 6 6 6 6 6 6 6 6 6 6 6 14 14 14 14 14 14 14 14 14 14 14 14 14 14 14 14 14 14 14 14 14 14 14 14 14 14 14 14 26 26 26 26 26 26 26 26 26 26 26 26 26 26 26 26 26 26 26 26 26 26 26 26 26 26 26 26 26 38 38 38 38 38 38 38 38 38 38 38 38 38 38 38 38 50 50 50 50 50 50 50 50 50 50 50 50 50 50 74 74 86 86 86 86 110 110 110 110 110 110 146 146 170 170 170 194 194 194 194 302 302 302 302 302 434 434 590 590 590 590 770 974 974 1202 974 1202 974 974 770 770 974 1202 1454 1730 2030 2030 2030 2030 2030 2030 2030 2030 1730 2030 1730 1202 1202 974 770 770 590 590 590 434 434 434 434 434 302 302 302 302 302 302 302 302 302 266 194 194 194 194 194 170 170 170 170 170 110 110 110 110 110 110 110 110 86 86 50 50 50 50 50 50 38 38 26 14 14 14 6

################################################################################

# Grid for Z=36 and Zeff=36
# Cost:             -7.70215
# Number of points: 41514
# Number of shells: 213

36 36
   PowerRTransform 7.566420074445342e-15 24.069719327197912 213